####################################################################### 
# 
# This file contains crystal structure data downloaded from the 
# Cambridge Structural Database (CSD) hosted by the Cambridge 
# Crystallographic Data Centre (CCDC).
# 
# Full information about CCDC data access policies and citation 
# guidelines are available at http://www.ccdc.cam.ac.uk/access/V1 
# 
# Audit and citation data items may have been added by the CCDC. 
# Please retain this information to preserve the provenance of 
# this file and to allow appropriate attribution of the data. 
# 
#######################################################################

data_ab1477_structure_1_of_1
_audit_block_doi                 10.5517/cc4bm57
_database_code_depnum_ccdc_archive 'CCDC 129368'
loop_
_citation_id
_citation_doi
_citation_year
1 10.1107/S0108270197007737 1997
_audit_update_record             
;
1999-07-02 deposited with the CCDC.
2016-04-21 downloaded from the CCDC.
;

_audit_creation_method           SHELXL
_chemical_name_systematic        
; 
p-dichlorobenzene 
;
_chemical_formula_sum            'C6 H4 Cl2'
_chemical_formula_weight         146.99

loop_
_atom_type_symbol
_atom_type_description
_atom_type_scat_dispersion_real
_atom_type_scat_dispersion_imag
_atom_type_scat_source
C C 0.0033 0.0016 'International Tables Vol C Tables 4.2.6.8 and 6.1.1.4'
H H 0.0000 0.0000 'International Tables Vol C Tables 4.2.6.8 and 6.1.1.4'
Cl Cl 0.1484 0.1585 'International Tables Vol C Tables 4.2.6.8 and 6.1.1.4'

_symmetry_cell_setting           monoclinic
_symmetry_space_group_name_H-M   'P 1 21/a 1'
_symmetry_space_group_name_Hall  '-P 2yab'

loop_
_symmetry_equiv_pos_as_xyz
'x, y, z'
'x+1/2, -y+1/2, z'
'-x, -y, -z'
'-x-1/2, y-1/2, -z'

_cell_length_a                   14.762(3)
_cell_length_b                   5.832(2)
_cell_length_c                   4.039(2)
_cell_angle_alpha                90.00
_cell_angle_beta                 112.78(2)
_cell_angle_gamma                90.00
_cell_volume                     320.6(2)
_cell_formula_units_Z            2
_cell_measurement_temperature    293(2)
_cell_measurement_reflns_used    25
_cell_measurement_theta_min      8
_cell_measurement_theta_max      12

_exptl_crystal_description       prism
_exptl_crystal_colour            colourless
_exptl_crystal_size_max          0.3
_exptl_crystal_size_mid          0.2
_exptl_crystal_size_min          0.2
_exptl_crystal_density_diffrn    1.523
_exptl_crystal_density_method    'not measured'
_exptl_crystal_F_000             148
_exptl_absorpt_coefficient_mu    0.891
_exptl_absorpt_correction_type   none

_diffrn_ambient_temperature      293(2)
_diffrn_radiation_wavelength     0.71069
_diffrn_radiation_type           MoK\a
_diffrn_radiation_source         'fine-focus sealed tube'
_diffrn_radiation_monochromator  graphite
_diffrn_measurement_device       'Philips PW-1100'
_diffrn_measurement_method       '\w--2\q scan'
_diffrn_standards_number         3
_diffrn_standards_interval_time  120
_diffrn_standards_decay_%        0
_diffrn_reflns_number            430
_diffrn_reflns_av_R_equivalents  0.0000
_diffrn_reflns_av_sigmaI/netI    0.0160
_diffrn_reflns_limit_h_min       -17
_diffrn_reflns_limit_h_max       16
_diffrn_reflns_limit_k_min       0
_diffrn_reflns_limit_k_max       6
_diffrn_reflns_limit_l_min       0
_diffrn_reflns_limit_l_max       4
_diffrn_reflns_theta_min         2.99
_diffrn_reflns_theta_max         25.01
_reflns_number_total             430
_reflns_number_observed          427
_reflns_observed_criterion       >2sigma(I)

_computing_structure_solution    'SHELXS86 (Sheldrick, 1990)'
_computing_structure_refinement  SHELXL93
_computing_molecular_graphics    'PLUTON93 (Spek, 1993)'
_computing_publication_material  'PARST95 (Nardelli, 1995)'

_refine_special_details          
; 
Refinement on F^2^ for ALL reflections except for 0 with very negative F^2^ 
or flagged by the user for potential systematic errors.  Weighted R-factors 
wR and all goodnesses of fit S are based on F^2^, conventional R-factors R 
are based on F, with F set to zero for negative F^2^. The observed criterion 
of F^2^ > 2sigma(F^2^) is used only for calculating R_factor_obs etc. and is 
not relevant to the choice of reflections for refinement.  R-factors based 
on F^2^ are statistically about twice as large as those based on F, and R- 
factors based on ALL data will be even larger. 
;

_refine_ls_structure_factor_coef Fsqd
_refine_ls_matrix_type           full
_refine_ls_weighting_scheme      
'calc w = 1/[\s^2^(Fo^2^)+(0.0961P)^2^+0.1088P] where P=(Fo^2^+2Fc^2^)/3'
_atom_sites_solution_primary     direct
_atom_sites_solution_secondary   difmap
_atom_sites_solution_hydrogens   geom
_refine_ls_hydrogen_treatment    'H atoms riding, see text'
_refine_ls_extinction_method     'SHELXL93 (Sheldrick, 1993)'
_refine_ls_extinction_coef       0.12(3)
_refine_ls_extinction_expression Fc^*^=kFc[1+0.001xFc^2^\l^3^/sin(2\q)]^-1/4^
_refine_ls_number_reflns         430
_refine_ls_number_parameters     39
_refine_ls_number_restraints     0
_refine_ls_R_factor_all          0.0498
_refine_ls_R_factor_obs          0.0495
_refine_ls_wR_factor_all         0.1361
_refine_ls_wR_factor_obs         0.1355
_refine_ls_goodness_of_fit_all   1.069
_refine_ls_goodness_of_fit_obs   1.068
_refine_ls_restrained_S_all      1.069
_refine_ls_restrained_S_obs      1.068
_refine_ls_shift/esd_max         -0.037
_refine_ls_shift/esd_mean        0.004

loop_
_atom_site_label
_atom_site_type_symbol
_atom_site_fract_x
_atom_site_fract_y
_atom_site_fract_z
_atom_site_U_iso_or_equiv
_atom_site_thermal_displace_type
_atom_site_occupancy
_atom_site_calc_flag
_atom_site_refinement_flags
_atom_site_disorder_group
Cl Cl 0.16499(8) 0.1781(2) 0.4775(3) 0.0807(6) Uani 1 d . .
C1 C 0.0724(3) 0.3595(6) 0.4892(10) 0.0571(10) Uani 1 d . .
C2 C 0.0969(3) 0.5602(7) 0.6816(10) 0.0631(11) Uani 1 d . .
H2 H 0.1625(3) 0.5998(7) 0.8044(10) 0.067(8) Uiso 1 calc R .
C3 C 0.0237(3) 0.7015(7) 0.6904(10) 0.0615(10) Uani 1 d . .
H3 H 0.0394(3) 0.8383(7) 0.8183(10) 0.067(8) Uiso 1 calc R .

loop_
_atom_site_aniso_label
_atom_site_aniso_U_11
_atom_site_aniso_U_22
_atom_site_aniso_U_33
_atom_site_aniso_U_23
_atom_site_aniso_U_13
_atom_site_aniso_U_12
Cl 0.0734(8) 0.0883(10) 0.0846(9) 0.0098(6) 0.0350(6) 0.0190(5)
C1 0.058(2) 0.061(2) 0.053(2) 0.009(2) 0.021(2) 0.002(2)
C2 0.051(2) 0.072(3) 0.059(2) 0.003(2) 0.013(2) -0.009(2)
C3 0.063(2) 0.060(2) 0.057(2) -0.005(2) 0.018(2) -0.008(2)

_geom_special_details            
; 
All esds (except the esd in the dihedral angle between two l.s. planes) 
are estimated using the full covariance matrix.  The cell esds are taken 
into account individually in the estimation of esds in distances, angles 
and torsion angles; correlations between esds in cell parameters are only 
used when they are defined by crystal symmetry.  An approximate (isotropic) 
treatment of cell esds is used for estimating esds involving l.s. planes. 
;

loop_
_geom_bond_atom_site_label_1
_geom_bond_atom_site_label_2
_geom_bond_distance
_geom_bond_site_symmetry_2
_geom_bond_publ_flag
Cl C1 1.744(4) . y
C1 C3 1.367(5) 3_566 y
C1 C2 1.374(5) . y
C2 C3 1.370(5) . y
C3 C1 1.367(5) 3_566 n

loop_
_geom_angle_atom_site_label_1
_geom_angle_atom_site_label_2
_geom_angle_atom_site_label_3
_geom_angle
_geom_angle_site_symmetry_1
_geom_angle_site_symmetry_3
_geom_angle_publ_flag
C3 C1 C2 121.0(3) 3_566 . y
C3 C1 Cl 119.4(3) 3_566 . y
C2 C1 Cl 119.6(3) . . y
C3 C2 C1 119.3(3) . . y
C1 C3 C2 119.8(4) 3_566 . y

_refine_diff_density_max         0.349
_refine_diff_density_min         -0.287
_refine_diff_density_rms         0.065

_geom_extra_table_head_A         
; 
Shortest intermolecular distances at 100K (d~100 K~, \%A) and 293 K 
(d~293 K~, \%A) with their thermal expansions [(\Dd/d)/\DT 10^4^, K^-1^] 
;

_geom_table_headnote_A           
;
For Cl...H interactions, angles around H at 100K (\F~100 K~, \%) 
and 293 K (\F~293 K~, \%) are included.
\Dd = d~293 K~ - d~100 K~, d = (d~293 K~ + d~100 K~)/2, \DT = 193 K. 
In the 293 K structure the C-H length has been fixed at 0.93 \%A. For 
comparison, the H-atom positions of the 100 K structure have been recalculated 
for giving the same bond length. 
In the 293 K structure the next longer distances for Cl...Cl, Cl...C, H...C and 
H...H interactions are 4.039(3), 3.769(5), 3.427(6) and 3.034(6) \%A, 
respectively; in the case of the C...C interactions the two distances given in 
the table are equal within the s.u. and the next one is 3.691(6) \%A; in
addition to the H...Cl interactions cited in the table there are two distances
shorter than 4 \%A: 3.628(5) and 3.656(5) \%A.
;

loop_
_geom_extra_tableA_col_1
_geom_extra_tableA_col_2
_geom_extra_tableA_col_3
_geom_extra_tableA_col_4

? 'd~100 K~' 'd~293 K~' '(\Dd/d)/\DT 10^4^'
H3...H3^i^ 2.704(7) 2.895(6) 3.52(15)
H3...C3^ii^ 3.175(6) 3.288(6) 1.81(15)
C1...C2^iii^ 3.516(6) 3.614(6) 1.40(10)
C1...C3^iii^ 3.557(6) 3.620(6) 0.93(10)
Cl...C2^iii^ 3.653(4) 3.716(4) 0.88(10)
Cl...Cl^iv^ 3.729(2) 3.806(2) 1.04(5)
H2...Cl^iv^ 3.107(5) 3.199(5) 1.50(10)
H2...Cl^v^ 3.015(4) 3.064(4) 0.83(10)
H3...Cl^vi^ 3.150(4) 3.261(4) 1.81(10)
H3...Cl^vii^ 3.283(5) 3.352(5) 1.09(10)
? ? ? ?
? \F~100K~ \F~293K~ ?
C2-H2...Cl^iv^ 131.3(4) 130.8(4) ?
C2-H2...Cl^v^ 148.5(4) 148.6(4) ?
Cl^iv^...H2...Cl^v^ 79.8(1) 80.3(1) ?
C3-H3...Cl^vi^ 154.1(4) 156.3(4) ?
C3-H3...Cl^vii^ 108.3(4) 109.7(4) ?
Cl^vi^...H3...Cl^vii^ 75.2(1) 75.3(1) ?

_geom_table_footnote_A           
;
Symmetry codes: (i) -x, 2 - y, 2 - z; (ii) -x, 2 - y, 1 - z; (iii) x, y, 
-1 + z; (iv) 1/2 - x, 1/2 + y, 1 - z; (v) 1/2 - x, 1/2 + y, 2 - z; 
(vi) x, 1 + y, 1 + z; (vii) x, 1 + y, z. 
;

