####################################################################### 
# 
# This file contains crystal structure data downloaded from the 
# Cambridge Structural Database (CSD) hosted by the Cambridge 
# Crystallographic Data Centre (CCDC).
# 
# Full information about CCDC data access policies and citation 
# guidelines are available at http://www.ccdc.cam.ac.uk/access/V1 
# 
# Audit and citation data items may have been added by the CCDC. 
# Please retain this information to preserve the provenance of 
# this file and to allow appropriate attribution of the data. 
# 
#######################################################################

data_hmx_0
_audit_block_doi                 10.5517/ccvm39v
_database_code_depnum_ccdc_archive 'CCDC 792927'
loop_
_citation_id
_citation_doi
_citation_year
1 10.1007/s10870-011-0026-6 2011
_audit_update_record             
;
2010-09-09 deposited with the CCDC.
2016-05-20 downloaded from the CCDC.
;
#TrackingRef 'hmx_0-final.cif'


_audit_creation_method           SHELXL-97
_chemical_name_systematic        
;
1,3,5,7-Tetranitro-1,3,5,7-tetra-azacyclo-octane
;
_chemical_name_common            HMX
_chemical_melting_point          ?
_chemical_formula_moiety         'C4 H8 N8 O8'
_chemical_formula_sum            'C4 H8 N8 O8'
_chemical_formula_weight         296.18

loop_
_atom_type_symbol
_atom_type_description
_atom_type_scat_dispersion_real
_atom_type_scat_dispersion_imag
_atom_type_scat_source
C C 0.0033 0.0016 'International Tables Vol C Tables 4.2.6.8 and 6.1.1.4'
H H 0.0000 0.0000 'International Tables Vol C Tables 4.2.6.8 and 6.1.1.4'
N N 0.0061 0.0033 'International Tables Vol C Tables 4.2.6.8 and 6.1.1.4'
O O 0.0106 0.0060 'International Tables Vol C Tables 4.2.6.8 and 6.1.1.4'

_symmetry_cell_setting           monoclinic
_symmetry_space_group_name_H-M   'P 21/n'

loop_
_symmetry_equiv_pos_as_xyz
'x, y, z'
'-x+1/2, y+1/2, -z+1/2'
'-x, -y, -z'
'x-1/2, -y-1/2, z-1/2'

_cell_length_a                   6.5289(5)
_cell_length_b                   10.9875(9)
_cell_length_c                   7.3453(5)
_cell_angle_alpha                90.00
_cell_angle_beta                 102.616(4)
_cell_angle_gamma                90.00
_cell_volume                     514.20(7)
_cell_formula_units_Z            2
_cell_measurement_temperature    273(2)
_cell_measurement_reflns_used    ?
_cell_measurement_theta_min      ?
_cell_measurement_theta_max      ?

_exptl_crystal_description       prism
_exptl_crystal_colour            colourless
_exptl_crystal_size_min          0.136
_exptl_crystal_size_mid          0.246
_exptl_crystal_size_max          0.286
_exptl_crystal_density_meas      ?
_exptl_crystal_density_diffrn    1.913
_exptl_crystal_density_method    'not measured'
_exptl_crystal_F_000             304
_exptl_absorpt_coefficient_mu    0.182
##############################################################################
# #
# NOTE on absorbtion correction with SADABS: #
# #
# (Semi)empirical correction methods for absorption correction are more of #
# a problem in that they often specify only a relative correction range #
# [ Tmin(emp) & Tmax(emp)]. #
# #
# Acta Cryst. procedures call in such cases for the multiplication of both #
# empirical values with Tmax(expected). #
# #
# THIS RECOMMENDATION IS CURRENTLY UNDER REVIEW! (George #
# and Ton are agruing this point!) #
# #
##############################################################################
_exptl_absorpt_correction_type   multi-scan
_exptl_absorpt_process_details   'SADABS v2.10 (Bruker, 2000c)'
_exptl_absorpt_correction_T_min  0.9365
_exptl_absorpt_correction_T_max  0.9691


_exptl_special_details           
;
?
;

_diffrn_ambient_temperature      273(2)
# SMART APEX II parameters
_diffrn_radiation_wavelength     0.71073
_diffrn_radiation_type           MoK\a
_diffrn_radiation_source         'fine-focus sealed tube'
_diffrn_radiation_monochromator  graphite
_diffrn_measurement_device_type  'Bruker SMART APEX II CCD'
_diffrn_measurement_method       '\w scans'
_diffrn_detector_area_resol_mean ?
_diffrn_standards_number         ?
_diffrn_standards_interval_count ?
_diffrn_standards_interval_time  ?
_diffrn_standards_decay_%        ?
_diffrn_reflns_number            2600
_diffrn_reflns_av_R_equivalents  0.0239
_diffrn_reflns_av_sigmaI/netI    0.0186
_diffrn_reflns_limit_h_min       -7
_diffrn_reflns_limit_h_max       7
_diffrn_reflns_limit_k_min       -13
_diffrn_reflns_limit_k_max       10
_diffrn_reflns_limit_l_min       -8
_diffrn_reflns_limit_l_max       7
_diffrn_reflns_theta_min         3.39
_diffrn_reflns_theta_max         25.31
_reflns_number_total             908
_reflns_number_gt                862
_reflns_threshold_expression     >2sigma(I)

_computing_data_collection       ?
_computing_cell_refinement       ?
_computing_data_reduction        ?
_computing_structure_solution    'SHELXS-97 (Sheldrick, 1990)'
_computing_structure_refinement  'SHELXL-97 (Sheldrick, 1997)'
_computing_molecular_graphics    ?
_computing_publication_material  ?

_refine_special_details          
;
Refinement of F^2^ against ALL reflections. The weighted R-factor wR and
goodness of fit S are based on F^2^, conventional R-factors R are based
on F, with F set to zero for negative F^2^. The threshold expression of
F^2^ > 2sigma(F^2^) is used only for calculating R-factors(gt) etc. and is
not relevant to the choice of reflections for refinement. R-factors based
on F^2^ are statistically about twice as large as those based on F, and R-
factors based on ALL data will be even larger.
;

_refine_ls_structure_factor_coef Fsqd
_refine_ls_matrix_type           full
_refine_ls_weighting_scheme      calc
_refine_ls_weighting_details     
'calc w=1/[\s^2^(Fo^2^)+(0.2000P)^2^+0.0000P] where P=(Fo^2^+2Fc^2^)/3'
_atom_sites_solution_primary     direct
_atom_sites_solution_secondary   difmap
_atom_sites_solution_hydrogens   geom
_refine_ls_hydrogen_treatment    mixed
_refine_ls_extinction_method     none
_refine_ls_extinction_coef       ?
_refine_ls_number_reflns         908
_refine_ls_number_parameters     97
_refine_ls_number_restraints     3
_refine_ls_R_factor_all          0.0341
_refine_ls_R_factor_gt           0.0331
_refine_ls_wR_factor_ref         0.1555
_refine_ls_wR_factor_gt          0.1461
_refine_ls_goodness_of_fit_ref   0.769
_refine_ls_restrained_S_all      0.768
_refine_ls_shift/su_max          0.001
_refine_ls_shift/su_mean         0.000

loop_
_atom_site_label
_atom_site_type_symbol
_atom_site_fract_x
_atom_site_fract_y
_atom_site_fract_z
_atom_site_U_iso_or_equiv
_atom_site_adp_type
_atom_site_occupancy
_atom_site_symmetry_multiplicity
_atom_site_calc_flag
_atom_site_refinement_flags
_atom_site_disorder_assembly
_atom_site_disorder_group
N3 N 0.98156(17) 0.62293(9) 0.46191(15) 0.0273(4) Uani 1 1 d . . .
O3B O 1.27214(17) 0.71988(10) 0.43766(16) 0.0421(4) Uani 1 1 d . . .
N3A N 1.14021(18) 0.70281(9) 0.53203(16) 0.0316(4) Uani 1 1 d . . .
N1 N 0.85718(18) 0.52512(9) 0.70575(14) 0.0311(4) Uani 1 1 d . . .
O1A O 0.7282(2) 0.42839(9) 0.92231(16) 0.0469(4) Uani 1 1 d . . .
N1A N 0.6983(2) 0.50161(10) 0.79339(16) 0.0344(4) Uani 1 1 d . . .
O3A O 1.14102(19) 0.74708(10) 0.68320(16) 0.0466(5) Uani 1 1 d . . .
C2 C 0.8099(2) 0.61536(12) 0.55406(18) 0.0296(4) Uani 1 1 d . . .
H2A H 0.6833 0.5918 0.4651 0.035 Uiso 1 1 calc R . .
H2B H 0.7860 0.6943 0.6047 0.035 Uiso 1 1 calc R . .
O1B O 0.53600(17) 0.56071(10) 0.73842(17) 0.0458(4) Uani 1 1 d . . .
C4 C 0.9776(2) 0.56561(11) 0.28224(18) 0.0291(4) Uani 1 1 d D . .
H4A H 0.8458(12) 0.5231(11) 0.2391(17) 0.035 Uiso 1 1 d D . .
H4B H 0.993(2) 0.6249(10) 0.1886(13) 0.035 Uiso 1 1 d D . .

loop_
_atom_site_aniso_label
_atom_site_aniso_U_11
_atom_site_aniso_U_22
_atom_site_aniso_U_33
_atom_site_aniso_U_23
_atom_site_aniso_U_13
_atom_site_aniso_U_12
N3 0.0266(7) 0.0269(7) 0.0289(7) -0.0014(4) 0.0071(5) -0.0016(4)
O3B 0.0360(7) 0.0465(7) 0.0458(7) 0.0046(4) 0.0134(5) -0.0120(4)
N3A 0.0301(7) 0.0277(7) 0.0362(7) 0.0007(4) 0.0056(5) -0.0026(4)
N1 0.0308(7) 0.0336(7) 0.0318(7) 0.0017(4) 0.0133(5) 0.0024(5)
O1A 0.0588(9) 0.0474(8) 0.0413(8) 0.0035(4) 0.0253(6) -0.0042(5)
N1A 0.0356(8) 0.0389(8) 0.0314(7) -0.0056(4) 0.0131(5) -0.0053(5)
O3A 0.0482(9) 0.0471(8) 0.0443(8) -0.0177(4) 0.0096(6) -0.0113(4)
C2 0.0270(8) 0.0297(7) 0.0322(8) 0.0009(5) 0.0070(5) 0.0032(5)
O1B 0.0289(7) 0.0572(7) 0.0546(7) -0.0035(5) 0.0165(5) 0.0018(4)
C4 0.0298(8) 0.0319(8) 0.0252(8) 0.0003(4) 0.0049(5) 0.0032(5)

_geom_special_details            
;
All esds (except the esd in the dihedral angle between two l.s. planes)
are estimated using the full covariance matrix. The cell esds are taken
into account individually in the estimation of esds in distances, angles
and torsion angles; correlations between esds in cell parameters are only
used when they are defined by crystal symmetry. An approximate (isotropic)
treatment of cell esds is used for estimating esds involving l.s. planes.
;

loop_
_geom_bond_atom_site_label_1
_geom_bond_atom_site_label_2
_geom_bond_distance
_geom_bond_site_symmetry_2
_geom_bond_publ_flag
N3 N3A 1.3695(15) . ?
N3 C2 1.4328(17) . ?
N3 C4 1.4574(16) . ?
O3B N3A 1.2322(17) . ?
N3A O3A 1.2112(16) . ?
N1 N1A 1.3596(17) . ?
N1 C4 1.4574(16) 3_766 ?
N1 C2 1.4730(16) . ?
O1A N1A 1.2253(15) . ?
N1A O1B 1.2333(17) . ?
C2 H2A 0.9700 . ?
C2 H2B 0.9700 . ?
C4 N1 1.4574(16) 3_766 ?
C4 H4A 0.970(9) . ?
C4 H4B 0.970(8) . ?

loop_
_geom_angle_atom_site_label_1
_geom_angle_atom_site_label_2
_geom_angle_atom_site_label_3
_geom_angle
_geom_angle_site_symmetry_1
_geom_angle_site_symmetry_3
_geom_angle_publ_flag
N3A N3 C2 117.71(10) . . ?
N3A N3 C4 118.68(11) . . ?
C2 N3 C4 122.79(10) . . ?
O3A N3A O3B 126.22(12) . . ?
O3A N3A N3 116.98(12) . . ?
O3B N3A N3 116.75(11) . . ?
N1A N1 C4 118.20(10) . 3_766 ?
N1A N1 C2 115.50(11) . . ?
C4 N1 C2 122.44(10) 3_766 . ?
O1A N1A O1B 125.38(11) . . ?
O1A N1A N1 118.80(12) . . ?
O1B N1A N1 115.77(11) . . ?
N3 C2 N1 109.87(10) . . ?
N3 C2 H2A 109.7 . . ?
N1 C2 H2A 109.7 . . ?
N3 C2 H2B 109.7 . . ?
N1 C2 H2B 109.7 . . ?
H2A C2 H2B 108.2 . . ?
N1 C4 N3 111.98(11) 3_766 . ?
N1 C4 H4A 106.4(9) 3_766 . ?
N3 C4 H4A 110.1(8) . . ?
N1 C4 H4B 108.1(10) 3_766 . ?
N3 C4 H4B 111.6(9) . . ?
H4A C4 H4B 108.3(10) . . ?

loop_
_geom_torsion_atom_site_label_1
_geom_torsion_atom_site_label_2
_geom_torsion_atom_site_label_3
_geom_torsion_atom_site_label_4
_geom_torsion
_geom_torsion_site_symmetry_1
_geom_torsion_site_symmetry_2
_geom_torsion_site_symmetry_3
_geom_torsion_site_symmetry_4
_geom_torsion_publ_flag
C2 N3 N3A O3A 11.36(16) . . . . ?
C4 N3 N3A O3A -178.67(11) . . . . ?
C2 N3 N3A O3B -170.79(10) . . . . ?
C4 N3 N3A O3B -0.82(16) . . . . ?
C4 N1 N1A O1A 22.37(17) 3_766 . . . ?
C2 N1 N1A O1A -179.20(11) . . . . ?
C4 N1 N1A O1B -160.12(12) 3_766 . . . ?
C2 N1 N1A O1B -1.69(16) . . . . ?
N3A N3 C2 N1 -88.10(12) . . . . ?
C4 N3 C2 N1 102.37(13) . . . . ?
N1A N1 C2 N3 -174.38(10) . . . . ?
C4 N1 C2 N3 -16.95(16) 3_766 . . . ?
N3A N3 C4 N1 71.88(13) . . . 3_766 ?
C2 N3 C4 N1 -118.69(12) . . . 3_766 ?

_diffrn_measured_fraction_theta_max 0.972
_diffrn_reflns_theta_full        25.31
_diffrn_measured_fraction_theta_full 0.972
_refine_diff_density_max         0.180
_refine_diff_density_min         -0.270
_refine_diff_density_rms         0.046
