data_CSD_CIF_MATCMN05
_audit_creation_date 1977-10-06
_audit_creation_method CSD-ConQuest-V1
_database_code_CSD MATCMN05
_chemical_formula_sum 'C2 H12 Cl4 Mn1 N2'
_chemical_formula_moiety
;
(C1 H6 N1 1+)2n,n(Cl4 Mn1 2-)
;
_journal_coeditor_code "IUCr A14635"
_journal_coden_Cambridge 107
_journal_volume 33
_journal_year 1977
_journal_page_first 1321
_journal_name_full 'Acta Crystallogr.,Sect.B:Struct.Crystallogr.Cryst.Chem. '
loop_
_publ_author_name
"I.Mikhail"
_chemical_name_systematic
;
catena-[bis(Methylammonium) bis(\m~2~-chloro)-dichloro-manganese(ii)]
;
_cell_volume    510.457
_exptl_special_details
;
tetragonal alpha polymorph
 
;
_diffrn_ambient_temperature 404
_diffrn_radiation_probe 'neutron radiation'
_refine_special_details
;
CHLORINE ATOMS CL1,CL2 HAVE OCCUPANCY 0.25,0.5. THE METHYLAMMONIUM GROUP IS
DISORDERED.
;
#These two values have been output from a single CSD field.
_refine_ls_R_factor_gt 0.056
_refine_ls_wR_factor_gt 0.056
_symmetry_cell_setting tetragonal
_symmetry_space_group_name_H-M 'I 4/m'
_symmetry_Int_Tables_number 87
loop_
_symmetry_equiv_pos_site_id
_symmetry_equiv_pos_as_xyz
1 x,y,z
2 1/2+x,1/2+y,1/2+z
3 -y,x,z
4 1/2-y,1/2+x,1/2+z
5 -x,-y,z
6 1/2-x,1/2-y,1/2+z
7 y,-x,z
8 1/2+y,1/2-x,1/2+z
9 -x,-y,-z
10 -1/2-x,-1/2-y,-1/2-z
11 y,-x,-z
12 -1/2+y,-1/2-x,-1/2-z
13 x,y,-z
14 -1/2+x,-1/2+y,-1/2-z
15 -y,x,-z
16 -1/2-y,-1/2+x,-1/2-z
_cell_length_a 5.119
_cell_length_b 5.119
_cell_length_c 19.48
_cell_angle_alpha 90
_cell_angle_beta 90
_cell_angle_gamma 90
_cell_formula_units_Z 4
loop_
_atom_type_symbol
_atom_type_radius_bond
C 0.68
H 0.23
Cl 0.99
Mn 1.45
N 0.68
loop_
_atom_site_label
_atom_site_type_symbol
_atom_site_fract_x
_atom_site_fract_y
_atom_site_fract_z
Mn1 Mn 0.00000 0.00000 0.00000
Cl1 Cl 0.00000 0.50000 0.0111(1)
Cl2 Cl 0.0569(8) -0.0073(4) 0.12690
C1 C 0.0341(5) 0.0704(3) 0.3123(1)
N1 N 0.0285(9) 0.0383(8) 0.3838(1)
H1 H 0.1956(5) 0.1238(2) 0.3979(6)
H2 H -0.09360 0.0772(1) 0.4085(5)
H3 H 0.1690(4) 0.1521(1) 0.3008(1)
H4 H -0.0413(1) 0.17530 0.2912(2)
Cl1* Cl 0.00000 -0.50000 0.0111(1)
Mn1* Mn 0.00000 -1.00000 0.00000
Cl1** Cl 0.00000 -1.50000 0.0111(1)
Cl1B Cl -0.50000 -1.00000 0.0111(1)
Mn1B Mn -1.00000 -1.00000 0.00000
Cl1B* Cl -1.50000 -1.00000 0.0111(1)
Cl1D Cl -1.00000 -1.50000 0.0111(1)
Cl1D* Cl -1.00000 -0.50000 0.0111(1)
Cl1J Cl -0.50000 -1.00000 -0.0111(1)
Cl1B** Cl 0.50000 -1.00000 0.0111(1)
Cl1H Cl 0.00000 -1.50000 -0.0111(1)
Mn1H Mn 0.00000 -2.00000 0.00000
Cl1H* Cl 0.00000 -2.50000 -0.0111(1)
Cl1J* Cl 0.50000 -2.00000 -0.0111(1)
Cl1J** Cl -0.50000 -2.00000 -0.0111(1)
Cl1B*** Cl 0.50000 -2.00000 0.0111(1)
Cl1B**** Cl -0.50000 -2.00000 0.0111(1)
Cl2H Cl -0.0569(8) -1.9927(4) -0.12690
Cl2J Cl -0.0073(8) -2.0569(4) -0.12690
Cl2L Cl 0.0569(8) -2.0073(4) -0.12690
Cl2N Cl 0.0073(8) -1.9431(4) -0.12690
Cl2* Cl 0.0569(8) -2.0073(4) 0.12690
Cl2B Cl 0.0073(8) -1.9431(4) 0.12690
Cl2F Cl -0.0073(8) -2.0569(4) 0.12690
Cl2D Cl -0.0569(8) -1.9927(4) 0.12690
Cl1H** Cl 0.00000 -0.50000 -0.0111(1)
Cl1J*** Cl 0.50000 -1.00000 -0.0111(1)
Cl2** Cl 0.0569(8) -1.0073(4) 0.12690
Cl2B* Cl 0.0073(8) -0.9431(4) 0.12690
Cl2D* Cl -0.0569(8) -0.9927(4) 0.12690
Cl2F* Cl -0.0073(8) -1.0569(4) 0.12690
Cl2H* Cl -0.0569(8) -0.9927(4) -0.12690
Cl2J* Cl -0.0073(8) -1.0569(4) -0.12690
Cl2L* Cl 0.0569(8) -1.0073(4) -0.12690
Cl2N* Cl 0.0073(8) -0.9431(4) -0.12690
Cl1J**** Cl -1.50000 -1.00000 -0.0111(1)
Cl1L Cl -1.00000 -1.50000 -0.0111(1)
Cl1L* Cl -1.00000 -0.50000 -0.0111(1)
Cl2B** Cl -0.9927(8) -0.9431(4) 0.12690
Cl2D** Cl -1.0569(8) -0.9927(4) 0.12690
Cl2F** Cl -1.0073(8) -1.0569(4) 0.12690
Cl2*** Cl -0.9431(8) -1.0073(4) 0.12690
Cl2J** Cl -1.0073(8) -1.0569(4) -0.12690
Cl2L** Cl -0.9431(8) -1.0073(4) -0.12690
Cl2N** Cl -0.9927(8) -0.9431(4) -0.12690
Cl2H** Cl -1.0569(8) -0.9927(4) -0.12690
Cl1H*** Cl 0.00000 0.50000 -0.0111(1)
Cl2D*** Cl -0.0569(8) 0.0073(4) 0.12690
C1B C -0.0704(5) 0.0341(3) 0.3123(1)
C1D C -0.0341(5) -0.0704(3) 0.3123(1)
C1F C 0.0704(5) -0.0341(3) 0.3123(1)
N1D N -0.0285(9) -0.0383(8) 0.3838(1)
N1F N 0.0383(9) -0.0285(8) 0.3838(1)
N1B N -0.0383(9) 0.0285(8) 0.3838(1)
H3B H -0.1521(4) 0.1690(1) 0.3008(1)
H3D H -0.1690(4) -0.1521(1) 0.3008(1)
H4B H -0.1753(1) -0.04130 0.2912(2)
H3F H 0.1521(4) -0.1690(1) 0.3008(1)
H4D H 0.0413(1) -0.17530 0.2912(2)
H4F H 0.1753(1) 0.04130 0.2912(2)
H1F H 0.1238(5) -0.1956(2) 0.3979(6)
H2F H 0.07720 0.0936(1) 0.4085(5)
H1D H -0.1956(5) -0.1238(2) 0.3979(6)
H1B H -0.1238(5) 0.1956(2) 0.3979(6)
H2B H -0.07720 -0.0936(1) 0.4085(5)
H2D H 0.09360 -0.0772(1) 0.4085(5)
#END

