data_CSD_CIF_MATCMN04
_audit_creation_date 1977-10-06
_audit_creation_method CSD-ConQuest-V1
_database_code_CSD MATCMN04
_chemical_formula_sum 'C2 H12 Cl4 Mn1 N2'
_chemical_formula_moiety
;
(C1 H6 N1 1+)2n,n(Cl4 Mn1 2-)
;
_journal_coeditor_code "IUCr A14634"
_journal_coden_Cambridge 107
_journal_volume 33
_journal_year 1977
_journal_page_first 1317
_journal_name_full 'Acta Crystallogr.,Sect.B:Struct.Crystallogr.Cryst.Chem. '
loop_
_publ_author_name
"I.Mikhail"
_chemical_name_systematic
;
catena-(bis(Methylammonium) bis(\m~2~-chloro)-dichloro-manganese(ii))
;
_cell_volume   1009.912
_exptl_crystal_density_diffrn 1.68
_exptl_special_details
;
orthorhombic gamma polymorph
PSEUDO-TETRAGONAL
 
;
_diffrn_ambient_temperature 188
_diffrn_radiation_probe 'neutron radiation'
#These two values have been output from a single CSD field.
_refine_ls_R_factor_gt 0.048
_refine_ls_wR_factor_gt 0.048
_symmetry_cell_setting orthorhombic
_symmetry_space_group_name_H-M 'P c c n'
_symmetry_Int_Tables_number 56
loop_
_symmetry_equiv_pos_site_id
_symmetry_equiv_pos_as_xyz
1 x,y,z
2 1/2-x,y,1/2+z
3 x,1/2-y,1/2+z
4 1/2-x,1/2-y,z
5 -x,-y,-z
6 -1/2+x,-y,-1/2-z
7 -x,-1/2+y,-1/2-z
8 -1/2+x,-1/2+y,-z
_cell_length_a 7.23
_cell_length_b 7.23
_cell_length_c 19.32
_cell_angle_alpha 90
_cell_angle_beta 90
_cell_angle_gamma 90
_cell_formula_units_Z 4
loop_
_atom_type_symbol
_atom_type_radius_bond
C 0.68
H 0.23
Cl 0.99
Mn 1.45
N 0.68
loop_
_atom_site_label
_atom_site_type_symbol
_atom_site_fract_x
_atom_site_fract_y
_atom_site_fract_z
Mn1 Mn 0.00000 0.00000 0.00000
Cl1 Cl 0.25000 0.25000 -0.01750
Cl2 Cl -0.25000 0.25000 0.00080
H1 H 0.03500 0.05740 0.41850
H2 H -0.15560 0.00490 0.39220
H3 H 0.03980 -0.14890 0.39040
H4 H 0.15100 -0.00210 0.30070
H5 H 0.00230 0.17420 0.30490
H6 H -0.02320 -0.06220 0.27760
Cl3 Cl 0.02750 0.03010 0.12790
C1 C 0.03420 0.02840 0.31260
N1 N -0.02750 -0.01560 0.38460
Cl3D Cl -0.02750 -0.03010 -0.12790
Cl1D Cl -0.25000 -0.25000 0.01750
Cl2D Cl 0.25000 -0.25000 -0.00080
Mn1C Mn 0.50000 0.50000 0.00000
Mn1C* Mn -0.50000 0.50000 0.00000
#END

