 
data_CSD_CIF_MATCMN07
_audit_creation_date 1979-08-06
_audit_creation_method CSD-ConQuest-V1
_database_code_CSD MATCMN07
_chemical_formula_sum 'C2 H12 Cl4 Mn1 N2'
_chemical_formula_moiety
;
(C1 H6 N1 1+)2n,n(Cl4 Mn1 2-)
;
_journal_coden_Cambridge 199
_journal_volume 35
_journal_year 1976
_journal_page_first 627
_journal_name_full 'Phys.Status Solidi B '
loop_
_publ_author_name
"G.Heger"
"D.Mullen"
"K.Knorr"
_chemical_name_systematic
;
catena-(bis(Methylammonium) bis(\m~2~-chloro)-dichloro-manganese(ii))
;
_cell_volume   1009.912
_exptl_special_details
;
low-temperature tetragonal polymorph
 
;
_diffrn_ambient_temperature 188
_diffrn_radiation_probe 'neutron radiation'
#These two values have been output from a single CSD field.
_refine_ls_R_factor_gt 0.075
_refine_ls_wR_factor_gt 0.075
_symmetry_cell_setting tetragonal
_symmetry_space_group_name_H-M 'P 42/n c m'
_symmetry_Int_Tables_number 138
loop_
_symmetry_equiv_pos_site_id
_symmetry_equiv_pos_as_xyz
1 x,y,z
2 1/2-y,x,1/2+z
3 1/2-x,1/2-y,z
4 y,1/2-x,1/2+z
5 1/2-x,y,1/2+z
6 y,x,z
7 x,1/2-y,1/2+z
8 1/2-y,1/2-x,z
9 -x,-y,-z
10 -1/2+y,-x,-1/2-z
11 -1/2+x,-1/2+y,-z
12 -y,-1/2+x,-1/2-z
13 -1/2+x,-y,-1/2-z
14 -y,-x,-z
15 -x,-1/2+y,-1/2-z
16 -1/2+y,-1/2+x,-z
_cell_length_a 7.23(1)
_cell_length_b 7.23(1)                                                                                                                                                                                                                                                                                                         
_cell_length_c 19.32(2)
_cell_angle_alpha 90
_cell_angle_beta 90
_cell_angle_gamma 90
_cell_formula_units_Z 4
loop_
_atom_type_symbol
_atom_type_radius_bond
C 0.68
H 0.23
Cl 0.99
Mn 1.45
N 0.68
loop_
_atom_site_label
_atom_site_type_symbol
_atom_site_fract_x
_atom_site_fract_y
_atom_site_fract_z
Mn1 Mn 0.00000 0.00000 0.00000
Cl1 Cl -0.25000 0.25000 0.00000
Cl2 Cl 0.25000 0.25000 -0.01740
Cl3 Cl 0.03100 0.03100 0.12830
C1 C 0.02900 0.02900 0.31200
N1 N -0.01500 -0.01500 0.38550
H1 H 0.16300 -0.00900 0.30400
H2 H -0.04700 -0.04700 0.27900
H3 H 0.01600 -0.14100 0.39200
H4 H 0.05600 0.05600 0.41900
H3E H -0.14100 0.01600 0.39200
H1E H -0.00900 0.16300 0.30400
Cl3H Cl -0.03100 -0.03100 -0.12830
Cl1E Cl 0.25000 -0.25000 0.00000
Cl2H Cl -0.25000 -0.25000 0.01740
Mn1B Mn -0.50000 0.50000 0.00000
Mn1B* Mn 0.50000 0.50000 0.00000
#END
 

