#------------------------------------------------------------------------------
#$Date: 2016-03-26 00:22:40 +0000 (Sat, 26 Mar 2016) $
#$Revision: 180136 $
#$URL: file:///home/coder/svn-repositories/cod/cif/7/10/33/7103363.cif $
#------------------------------------------------------------------------------
#
# This file is available in the Crystallography Open Database (COD),
# http://www.crystallography.net/
#
# All data on this site have been placed in the public domain by the
# contributors.
#
data_7103363
loop_
_publ_author_name
'Bujak, Maciej'
'Podsiad\/lo, Marcin'
'Katrusiak, Andrzej'
_publ_section_title
;
 Energetics of conformational conversion between 1,1,2-trichloroethane
 polymorphs.
;
_journal_issue                   37
_journal_name_full
'Chemical communications (Cambridge, England)'
_journal_page_first              4439
_journal_page_last               4441
_journal_paper_doi               10.1039/b807372d
_journal_year                    2008
_chemical_formula_moiety         'C2 H3 Cl3'
_chemical_formula_sum            'C2 H3 Cl3'
_chemical_formula_weight         133.39
_chemical_melting_point          236.6
_chemical_name_common            1,1,2-trichloroethane
_chemical_name_systematic
;
1,1,2-trichloroethane
;
_space_group_IT_number           14
_symmetry_cell_setting           monoclinic
_symmetry_space_group_name_Hall  '-P 2ybc'
_symmetry_space_group_name_H-M   'P 1 21/c 1'
_atom_sites_solution_hydrogens   geom
_atom_sites_solution_primary     direct
_atom_sites_solution_secondary   difmap
_audit_creation_method           SHELXL-97
_cell_angle_alpha                90.00
_cell_angle_beta                 93.01(3)
_cell_angle_gamma                90.00
_cell_formula_units_Z            4
_cell_length_a                   5.2539(19)
_cell_length_b                   8.698(3)
_cell_length_c                   10.948(5)
_cell_measurement_reflns_used    4342
_cell_measurement_temperature    295(2)
_cell_measurement_theta_max      29.29
_cell_measurement_theta_min      2.34
_cell_volume                     499.6(3)
_computing_cell_refinement       'CrysAlisRED (Oxford Diffraction, 2004)'
_computing_data_collection       'CrysAlisCCD (Oxford Diffraction, 2004)'
_computing_data_reduction
'CrysAlisRED (Oxford Diffraction, 2004); REDSHABS (Katrusiak, A. 2003)'
_computing_molecular_graphics    'SHELXTL (Sheldrick, 1990)'
_computing_publication_material  'SHELXL--97 (Sheldrick, 1997)'
_computing_structure_refinement  'SHELXL--97 (Sheldrick, 1997)'
_computing_structure_solution    'SHELXS--97 (Sheldrick, 1997)'
_diffrn_ambient_environment      'diamond-anvil cell'
_diffrn_ambient_pressure         470000
_diffrn_ambient_temperature      295(2)
_diffrn_measured_fraction_theta_full 0.316
_diffrn_measured_fraction_theta_max 0.316
_diffrn_measurement_device_type  'KM-4 CCD'
_diffrn_measurement_method       '\f- and \w-scans'
_diffrn_radiation_monochromator  graphite
_diffrn_radiation_source         'fine-focus sealed tube'
_diffrn_radiation_type           MoK\a
_diffrn_radiation_wavelength     0.71073
_diffrn_reflns_av_R_equivalents  0.0941
_diffrn_reflns_av_sigmaI/netI    0.0285
_diffrn_reflns_limit_h_max       6
_diffrn_reflns_limit_h_min       -6
_diffrn_reflns_limit_k_max       10
_diffrn_reflns_limit_k_min       -10
_diffrn_reflns_limit_l_max       6
_diffrn_reflns_limit_l_min       -6
_diffrn_reflns_number            2798
_diffrn_reflns_theta_full        25.23
_diffrn_reflns_theta_max         25.23
_diffrn_reflns_theta_min         2.99
_diffrn_standards_decay_%        0
_diffrn_standards_interval_count 0
_diffrn_standards_number         0
_exptl_absorpt_coefficient_mu    1.648
_exptl_absorpt_correction_T_max  0.66
_exptl_absorpt_correction_T_min  0.61
_exptl_absorpt_correction_type   numerical
_exptl_absorpt_process_details
;
Correction for absorption of the diamond-anvil cell and the sample
were made using program REDSHABS (Katrusiak, A. (2003) REDSHABS. Adam
Mickiewicz University Pozna\'n; Katrusiak, A. (2004) Z. Kristallogr.
219, 461-467).
;
_exptl_crystal_colour            colourless
_exptl_crystal_density_diffrn    1.773
_exptl_crystal_density_method    'not measured'
_exptl_crystal_description       cylinder
_exptl_crystal_F_000             264
_exptl_crystal_size_max          0.44
_exptl_crystal_size_mid          0.44
_exptl_crystal_size_min          0.25
_exptl_crystal_size_rad          0.22
_refine_diff_density_max         0.156
_refine_diff_density_min         -0.131
_refine_diff_density_rms         0.040
_refine_ls_extinction_method     none
_refine_ls_goodness_of_fit_ref   1.179
_refine_ls_hydrogen_treatment    constr
_refine_ls_matrix_type           full
_refine_ls_number_parameters     46
_refine_ls_number_reflns         288
_refine_ls_number_restraints     19
_refine_ls_restrained_S_all      1.156
_refine_ls_R_factor_all          0.0572
_refine_ls_R_factor_gt           0.0566
_refine_ls_shift/su_max          0.000
_refine_ls_shift/su_mean         0.000
_refine_ls_structure_factor_coef Fsqd
_refine_ls_weighting_details
'calc w=1/[\s^2^(Fo^2^)+(0.0716P)^2^+0.5733P] where P=(Fo^2^+2Fc^2^)/3'
_refine_ls_weighting_scheme      calc
_refine_ls_wR_factor_gt          0.1458
_refine_ls_wR_factor_ref         0.1463
_reflns_number_gt                282
_reflns_number_total             288
_reflns_threshold_expression     >2sigma(I)
_cod_data_source_file            b807372d.txt
_cod_data_source_block           112TCE_047GPa
_cod_database_code               7103363
loop_
_symmetry_equiv_pos_as_xyz
'x, y, z'
'-x, y+1/2, -z+1/2'
'-x, -y, -z'
'x, -y-1/2, z-1/2'
loop_
_atom_site_label
_atom_site_type_symbol
_atom_site_fract_x
_atom_site_fract_y
_atom_site_fract_z
_atom_site_U_iso_or_equiv
_atom_site_adp_type
_atom_site_occupancy
_atom_site_symmetry_multiplicity
_atom_site_calc_flag
_atom_site_refinement_flags
_atom_site_disorder_assembly
_atom_site_disorder_group
Cl1 Cl 0.4808(5) 0.3344(2) 0.1077(5) 0.083(4) Uani 1 1 d . . .
Cl2 Cl 0.7747(7) 0.0435(2) 0.1107(6) 0.103(5) Uani 1 1 d . . .
Cl3 Cl 1.0137(5) 0.14215(19) 0.3729(4) 0.077(4) Uani 1 1 d . . .
C1 C 0.751(3) 0.2360(11) 0.168(3) 0.088(5) Uani 1 1 d U . .
H11 H 0.9020 0.2926 0.1440 0.105 Uiso 1 1 calc R . .
C2 C 0.753(3) 0.2366(11) 0.304(3) 0.090(5) Uani 1 1 d U . .
H21 H 0.5981 0.1879 0.3295 0.108 Uiso 1 1 calc R . .
H22 H 0.7523 0.3422 0.3326 0.108 Uiso 1 1 calc R . .
loop_
_atom_site_aniso_label
_atom_site_aniso_U_11
_atom_site_aniso_U_22
_atom_site_aniso_U_33
_atom_site_aniso_U_23
_atom_site_aniso_U_13
_atom_site_aniso_U_12
Cl1 0.067(2) 0.0897(14) 0.089(11) 0.0135(16) -0.024(5) 0.0173(9)
Cl2 0.143(3) 0.0720(13) 0.092(12) -0.0186(16) -0.006(6) 0.0155(12)
Cl3 0.066(2) 0.0753(12) 0.087(9) 0.0146(14) -0.028(4) 0.0052(8)
C1 0.081(7) 0.098(5) 0.083(12) 0.020(8) -0.005(8) 0.002(4)
C2 0.083(7) 0.103(5) 0.082(12) 0.019(8) -0.018(8) -0.001(4)
loop_
_atom_type_symbol
_atom_type_description
_atom_type_scat_dispersion_real
_atom_type_scat_dispersion_imag
_atom_type_scat_source
C C 0.0033 0.0016 'International Tables Vol C Tables 4.2.6.8 and 6.1.1.4'
H H 0.0000 0.0000 'International Tables Vol C Tables 4.2.6.8 and 6.1.1.4'
Cl Cl 0.1484 0.1585 'International Tables Vol C Tables 4.2.6.8 and 6.1.1.4'
loop_
_geom_angle_atom_site_label_1
_geom_angle_atom_site_label_2
_geom_angle_atom_site_label_3
_geom_angle
_geom_angle_site_symmetry_1
_geom_angle_site_symmetry_3
_geom_angle_publ_flag
C1 C2 Cl3 113(2) . . ?
C2 C1 Cl1 110(2) . . ?
C2 C1 Cl2 110.8(10) . . ?
Cl1 C1 Cl2 113.1(9) . . ?
Cl1 C1 H11 107.7 . . ?
Cl2 C1 H11 107.7 . . ?
Cl3 C2 H21 108.9 . . ?
Cl3 C2 H22 108.9 . . ?
C1 C2 H21 108.9 . . ?
C1 C2 H22 108.9 . . ?
C2 C1 H11 107.7 . . ?
H21 C2 H22 107.7 . . ?
loop_
_geom_bond_atom_site_label_1
_geom_bond_atom_site_label_2
_geom_bond_distance
_geom_bond_site_symmetry_2
_geom_bond_publ_flag
Cl1 C1 1.757(10) . ?
Cl2 C1 1.794(16) . ?
C1 C2 1.49(5) . ?
Cl3 C2 1.735(9) . ?
C1 H11 0.9800 . ?
C2 H21 0.9700 . ?
C2 H22 0.9700 . ?
loop_
_geom_torsion_atom_site_label_1
_geom_torsion_atom_site_label_2
_geom_torsion_atom_site_label_3
_geom_torsion_atom_site_label_4
_geom_torsion
_geom_torsion_site_symmetry_1
_geom_torsion_site_symmetry_2
_geom_torsion_site_symmetry_3
_geom_torsion_site_symmetry_4
_geom_torsion_publ_flag
Cl1 C1 C2 Cl3 -179.9(4) . . . . ?
Cl2 C1 C2 Cl3 54.6(15) . . . . ?
