####################################################################### 
# 
# This file contains crystal structure data downloaded from the 
# Cambridge Structural Database (CSD) hosted by the Cambridge 
# Crystallographic Data Centre (CCDC).
# 
# Full information about CCDC data access policies and citation 
# guidelines are available at http://www.ccdc.cam.ac.uk/access/V1 
# 
# Audit and citation data items may have been added by the CCDC. 
# Please retain this information to preserve the provenance of 
# this file and to allow appropriate attribution of the data. 
# 
#######################################################################

data_ix090
_audit_block_doi                 10.5517/cc103x34
_database_code_depnum_ccdc_archive 'CCDC 927275'
_audit_update_record             
;
2013-03-01 deposited with the CCDC.
2016-05-20 downloaded from the CCDC.
;
_audit_creation_date             'Thu Feb 28 20:38:14 2013'
_audit_creation_method           SHELXL-97

_chemical_name_systematic        1,3,5-trinitro-1,3,5-triazacyclohexane
_chemical_name_common            1,3,5-trinitro-1,3,5-triazacyclohexane
_chemical_melting_point          477
_chemical_formula_moiety         'C3 H6 N6 O6'
_chemical_formula_sum            'C3 H6 N6 O6'
_chemical_formula_weight         222.14

loop_
_atom_type_symbol
_atom_type_description
_atom_type_scat_dispersion_real
_atom_type_scat_dispersion_imag
_atom_type_scat_source
C C 0.0033 0.0016 'International Tables Vol C Tables 4.2.6.8 and 6.1.1.4'
N N 0.0061 0.0033 'International Tables Vol C Tables 4.2.6.8 and 6.1.1.4'
O O 0.0106 0.0060 'International Tables Vol C Tables 4.2.6.8 and 6.1.1.4'
H H 0.0000 0.0000 'International Tables Vol C Tables 4.2.6.8 and 6.1.1.4'

_symmetry_cell_setting           orthorhombic
_symmetry_space_group_name_H-M   'P b c a'
_symmetry_int_tables_number      61
_symmetry_space_group_name_Hall  '-P 2ac 2ab'

loop_
_symmetry_equiv_pos_as_xyz
'x, y, z'
'-x+1/2, -y, z+1/2'
'x+1/2, -y+1/2, -z'
'-x, y+1/2, -z+1/2'
'-x, -y, -z'
'x-1/2, y, -z-1/2'
'-x-1/2, y-1/2, z'
'x, -y-1/2, z-1/2'

_cell_length_a                   11.4545(5)
_cell_length_b                   10.6169(5)
_cell_length_c                   13.1773(6)
_cell_angle_alpha                90.00
_cell_angle_beta                 90.00
_cell_angle_gamma                90.00
_cell_volume                     1602.51(13)
_cell_formula_units_Z            8
_cell_measurement_temperature    100(2)
_cell_measurement_reflns_used    1664
_cell_measurement_theta_min      4.5130
_cell_measurement_theta_max      31.6030

_exptl_crystal_description       block
_exptl_crystal_colour            colorless
_exptl_crystal_size_max          0.40
_exptl_crystal_size_mid          0.40
_exptl_crystal_size_min          0.25
_exptl_crystal_density_meas      ?
_exptl_crystal_density_diffrn    1.841
_exptl_crystal_density_method    'not measured'
_exptl_crystal_F_000             912
_exptl_absorpt_coefficient_mu    0.175
_exptl_absorpt_correction_T_min  0.95450
_exptl_absorpt_correction_T_max  1.00000
_exptl_absorpt_correction_type   multi-scan
_exptl_absorpt_process_details   
'SCALE3 ABSPACK in CrysAlisPro 1.171.36.24 (Agilent Technologies, 2012)'

_diffrn_ambient_temperature      100(2)
_diffrn_radiation_wavelength     0.71073
_diffrn_radiation_type           'Mo K\a'
_diffrn_radiation_source         'fine-focus sealed tube'
_diffrn_radiation_monochromator  graphite
_diffrn_measurement_device_type  'Oxford Diffraction Xcalibur 3 CCD'
_diffrn_measurement_method       '\w scans'
_diffrn_detector_area_resol_mean 15.9809
_diffrn_standards_number         ?
_diffrn_standards_interval_count ?
_diffrn_standards_interval_time  ?
_diffrn_standards_decay_%        ?
_diffrn_reflns_number            3936
_diffrn_reflns_av_R_equivalents  0.0225
_diffrn_reflns_av_sigmaI/netI    0.0283
_diffrn_reflns_limit_h_min       -11
_diffrn_reflns_limit_h_max       14
_diffrn_reflns_limit_k_min       -9
_diffrn_reflns_limit_k_max       13
_diffrn_reflns_limit_l_min       -16
_diffrn_reflns_limit_l_max       13
_diffrn_reflns_theta_min         4.33
_diffrn_reflns_theta_max         26.00
_reflns_number_total             1562
_reflns_number_gt                1344
_reflns_threshold_expression     >2\s(I)

_computing_data_collection       
'CrysAlisPro 1.171.36.24 (Agilent Technologies, 2012)'
_computing_cell_refinement       
'CrysAlisPro 1.171.36.24 (Agilent Technologies, 2012)'
_computing_data_reduction        
'CrysAlisPro 1.171.36.24 (Agilent Technologies, 2012)'
_computing_structure_solution    'SHELXS-97 (Sheldrick, 2008)'
_computing_structure_refinement  'SHELXL-97 (Sheldrick, 2008)'

_refine_special_details          
;
Refinement of F^2^ against ALL reflections. The weighted R-factor wR and
goodness of fit S are based on F^2^, conventional R-factors R are based
on F, with F set to zero for negative F^2^. The threshold expression of
F^2^ > 2\s(F^2^) is used only for calculating R-factors(gt) etc. and is
not relevant to the choice of reflections for refinement. R-factors based
on F^2^ are statistically about twice as large as those based on F, and R-
factors based on ALL data will be even larger.
;

_refine_ls_structure_factor_coef Fsqd
_refine_ls_matrix_type           full
_refine_ls_weighting_scheme      calc
_refine_ls_weighting_details     
'calc w=1/[\s^2^(Fo^2^)+(0.0381P)^2^+0.4222P] where P=(Fo^2^+2Fc^2^)/3'
_atom_sites_solution_primary     direct
_atom_sites_solution_secondary   difmap
_atom_sites_solution_hydrogens   geom
_refine_ls_hydrogen_treatment    constr
_refine_ls_extinction_method     none
_refine_ls_extinction_coef       ?
_refine_ls_number_reflns         1562
_refine_ls_number_parameters     136
_refine_ls_number_restraints     0
_refine_ls_R_factor_all          0.0374
_refine_ls_R_factor_gt           0.0307
_refine_ls_wR_factor_ref         0.0836
_refine_ls_wR_factor_gt          0.0782
_refine_ls_goodness_of_fit_ref   1.095
_refine_ls_restrained_S_all      1.095
_refine_ls_shift/su_max          0.000
_refine_ls_shift/su_mean         0.000

loop_
_atom_site_label
_atom_site_type_symbol
_atom_site_fract_x
_atom_site_fract_y
_atom_site_fract_z
_atom_site_U_iso_or_equiv
_atom_site_adp_type
_atom_site_occupancy
_atom_site_symmetry_multiplicity
_atom_site_calc_flag
_atom_site_refinement_flags
_atom_site_disorder_assembly
_atom_site_disorder_group
O1 O 0.43309(9) -0.10413(10) 0.45338(9) 0.0214(3) Uani 1 1 d . . .
O2 O 0.31857(9) -0.03274(10) 0.57242(8) 0.0208(3) Uani 1 1 d . . .
O3 O 0.35098(9) 0.24561(11) 0.61676(8) 0.0209(3) Uani 1 1 d . . .
O4 O 0.46460(9) 0.36640(10) 0.52701(8) 0.0226(3) Uani 1 1 d . . .
O5 O 0.59326(9) 0.26386(10) 0.27076(8) 0.0202(3) Uani 1 1 d . . .
O6 O 0.56777(8) 0.06525(10) 0.23275(7) 0.0179(3) Uani 1 1 d . . .
N1 N 0.29660(9) 0.04020(11) 0.41377(9) 0.0133(3) Uani 1 1 d . . .
N2 N 0.31798(10) 0.26491(12) 0.44919(9) 0.0123(3) Uani 1 1 d . . .
N3 N 0.43457(10) 0.16436(11) 0.32569(9) 0.0137(3) Uani 1 1 d . . .
N4 N 0.35540(10) -0.03527(12) 0.48525(9) 0.0157(3) Uani 1 1 d . . .
N5 N 0.38430(10) 0.29175(12) 0.53691(9) 0.0151(3) Uani 1 1 d . . .
N6 N 0.53703(10) 0.16484(12) 0.27254(9) 0.0143(3) Uani 1 1 d . . .
C1 C 0.24036(12) 0.15491(14) 0.45292(11) 0.0136(3) Uani 1 1 d . . .
H1A H 0.1695 0.1726 0.4124 0.016 Uiso 1 1 calc R . .
H1B H 0.2158 0.1404 0.5240 0.016 Uiso 1 1 calc R . .
C2 C 0.37797(12) 0.28370(14) 0.35253(11) 0.0137(3) Uani 1 1 d . . .
H2B H 0.4370 0.3514 0.3590 0.016 Uiso 1 1 calc R . .
H2A H 0.3214 0.3082 0.2993 0.016 Uiso 1 1 calc R . .
C3 C 0.35614(12) 0.05627(14) 0.31642(10) 0.0144(3) Uani 1 1 d . . .
H3B H 0.4012 -0.0205 0.2995 0.017 Uiso 1 1 calc R . .
H3A H 0.2984 0.0713 0.2618 0.017 Uiso 1 1 calc R . .

loop_
_atom_site_aniso_label
_atom_site_aniso_U_11
_atom_site_aniso_U_22
_atom_site_aniso_U_33
_atom_site_aniso_U_23
_atom_site_aniso_U_13
_atom_site_aniso_U_12
O1 0.0169(5) 0.0147(5) 0.0328(6) -0.0010(5) -0.0051(4) 0.0032(5)
O2 0.0260(6) 0.0217(6) 0.0148(5) 0.0045(5) -0.0026(4) -0.0041(5)
O3 0.0264(6) 0.0253(6) 0.0111(5) -0.0003(5) -0.0009(4) 0.0029(5)
O4 0.0203(5) 0.0204(6) 0.0273(6) -0.0030(5) -0.0059(5) -0.0049(5)
O5 0.0168(5) 0.0191(6) 0.0248(6) 0.0043(5) 0.0039(4) -0.0042(5)
O6 0.0187(5) 0.0205(6) 0.0146(5) -0.0017(5) 0.0029(4) 0.0052(4)
N1 0.0130(6) 0.0133(6) 0.0134(6) 0.0025(5) -0.0003(5) 0.0008(5)
N2 0.0128(5) 0.0149(6) 0.0093(6) -0.0012(5) -0.0011(4) 0.0003(5)
N3 0.0128(6) 0.0133(6) 0.0150(6) -0.0008(5) 0.0040(5) -0.0003(5)
N4 0.0141(6) 0.0134(6) 0.0197(7) 0.0014(5) -0.0045(5) -0.0039(5)
N5 0.0158(6) 0.0147(6) 0.0148(6) -0.0024(5) -0.0031(5) 0.0035(5)
N6 0.0132(6) 0.0185(7) 0.0112(6) 0.0035(5) 0.0001(5) 0.0021(5)
C1 0.0107(6) 0.0156(7) 0.0143(7) -0.0003(6) 0.0006(5) 0.0008(6)
C2 0.0163(7) 0.0125(7) 0.0124(7) 0.0009(6) 0.0016(5) 0.0021(6)
C3 0.0155(7) 0.0148(7) 0.0130(7) -0.0018(6) 0.0022(6) -0.0009(6)

_geom_special_details            
;
All s.u.'s (except the s.u. in the dihedral angle between two l.s. planes)
are estimated using the full covariance matrix. The cell s.u.'s are taken
into account individually in the estimation of s.u.'s in distances, angles
and torsion angles; correlations between s.u.'s in cell parameters are only
used when they are defined by crystal symmetry. An approximate (isotropic)
treatment of cell s.u.'s is used for estimating s.u.'s involving l.s. planes.
;

loop_
_geom_bond_atom_site_label_1
_geom_bond_atom_site_label_2
_geom_bond_distance
_geom_bond_site_symmetry_2
_geom_bond_publ_flag
O1 N4 1.2259(16) . ?
O2 N4 1.2240(16) . ?
O3 N5 1.2218(16) . ?
O4 N5 1.2211(16) . ?
O5 N6 1.2331(16) . ?
O6 N6 1.2315(16) . ?
N1 N4 1.4081(17) . ?
N1 C3 1.4628(17) . ?
N1 C1 1.4711(18) . ?
N2 N5 1.4122(16) . ?
N2 C2 1.4610(17) . ?
N2 C1 1.4686(18) . ?
N3 N6 1.3668(16) . ?
N3 C3 1.4625(18) . ?
N3 C2 1.4666(18) . ?
C1 H1A 0.9900 . ?
C1 H1B 0.9900 . ?
C2 H2B 0.9900 . ?
C2 H2A 0.9900 . ?
C3 H3B 0.9900 . ?
C3 H3A 0.9900 . ?

loop_
_geom_angle_atom_site_label_1
_geom_angle_atom_site_label_2
_geom_angle_atom_site_label_3
_geom_angle
_geom_angle_site_symmetry_1
_geom_angle_site_symmetry_3
_geom_angle_publ_flag
N4 N1 C3 115.47(11) . . ?
N4 N1 C1 116.48(11) . . ?
C3 N1 C1 114.53(11) . . ?
N5 N2 C2 115.66(11) . . ?
N5 N2 C1 117.31(11) . . ?
C2 N2 C1 114.99(11) . . ?
N6 N3 C3 119.18(11) . . ?
N6 N3 C2 120.00(11) . . ?
C3 N3 C2 115.25(10) . . ?
O2 N4 O1 125.79(13) . . ?
O2 N4 N1 116.77(12) . . ?
O1 N4 N1 117.22(12) . . ?
O4 N5 O3 125.98(12) . . ?
O4 N5 N2 116.66(11) . . ?
O3 N5 N2 117.13(12) . . ?
O6 N6 O5 125.07(11) . . ?
O6 N6 N3 117.42(12) . . ?
O5 N6 N3 117.48(12) . . ?
N2 C1 N1 112.43(11) . . ?
N2 C1 H1A 109.1 . . ?
N1 C1 H1A 109.1 . . ?
N2 C1 H1B 109.1 . . ?
N1 C1 H1B 109.1 . . ?
H1A C1 H1B 107.9 . . ?
N2 C2 N3 107.47(11) . . ?
N2 C2 H2B 110.2 . . ?
N3 C2 H2B 110.2 . . ?
N2 C2 H2A 110.2 . . ?
N3 C2 H2A 110.2 . . ?
H2B C2 H2A 108.5 . . ?
N3 C3 N1 107.73(11) . . ?
N3 C3 H3B 110.2 . . ?
N1 C3 H3B 110.2 . . ?
N3 C3 H3A 110.2 . . ?
N1 C3 H3A 110.2 . . ?
H3B C3 H3A 108.5 . . ?

loop_
_geom_torsion_atom_site_label_1
_geom_torsion_atom_site_label_2
_geom_torsion_atom_site_label_3
_geom_torsion_atom_site_label_4
_geom_torsion
_geom_torsion_site_symmetry_1
_geom_torsion_site_symmetry_2
_geom_torsion_site_symmetry_3
_geom_torsion_site_symmetry_4
_geom_torsion_publ_flag
C3 N1 N4 O2 167.66(12) . . . . ?
C1 N1 N4 O2 28.98(16) . . . . ?
C3 N1 N4 O1 -17.43(17) . . . . ?
C1 N1 N4 O1 -156.11(12) . . . . ?
C2 N2 N5 O4 24.96(17) . . . . ?
C1 N2 N5 O4 165.81(11) . . . . ?
C2 N2 N5 O3 -160.26(12) . . . . ?
C1 N2 N5 O3 -19.41(17) . . . . ?
C3 N3 N6 O6 -11.99(17) . . . . ?
C2 N3 N6 O6 -164.42(12) . . . . ?
C3 N3 N6 O5 170.18(12) . . . . ?
C2 N3 N6 O5 17.75(17) . . . . ?
N5 N2 C1 N1 -93.03(14) . . . . ?
C2 N2 C1 N1 48.08(15) . . . . ?
N4 N1 C1 N2 91.06(13) . . . . ?
C3 N1 C1 N2 -48.01(15) . . . . ?
N5 N2 C2 N3 90.26(14) . . . . ?
C1 N2 C2 N3 -51.51(14) . . . . ?
N6 N3 C2 N2 -148.07(11) . . . . ?
C3 N3 C2 N2 58.47(14) . . . . ?
N6 N3 C3 N1 147.54(11) . . . . ?
C2 N3 C3 N1 -58.77(15) . . . . ?
N4 N1 C3 N3 -87.73(14) . . . . ?
C1 N1 C3 N3 51.76(14) . . . . ?

_diffrn_measured_fraction_theta_max 0.994
_diffrn_reflns_theta_full        26.00
_diffrn_measured_fraction_theta_full 0.994
_refine_diff_density_max         0.222
_refine_diff_density_min         -0.244
_refine_diff_density_rms         0.048
