####################################################################### 
# 
# This file contains crystal structure data downloaded from the 
# Cambridge Structural Database (CSD) hosted by the Cambridge 
# Crystallographic Data Centre (CCDC).
# 
# Full information about CCDC data access policies and citation 
# guidelines are available at http://www.ccdc.cam.ac.uk/access/V1 
# 
# Audit and citation data items may have been added by the CCDC. 
# Please retain this information to preserve the provenance of 
# this file and to allow appropriate attribution of the data. 
# 
#######################################################################

data_ix091
_audit_block_doi                 10.5517/cc103x45
_database_code_depnum_ccdc_archive 'CCDC 927276'
_audit_update_record             
;
2013-03-01 deposited with the CCDC.
2016-05-20 downloaded from the CCDC.
;
_audit_creation_date             'Fri Mar 01 00:14:18 2013'
_audit_creation_method           SHELXL-97

_chemical_name_systematic        1,3,5-trinitro-1,3,5-triazacyclohexane
_chemical_name_common            1,3,5-trinitro-1,3,5-triazacyclohexane
_chemical_melting_point          477
_chemical_formula_moiety         'C3 H6 N6 O6'
_chemical_formula_sum            'C3 H6 N6 O6'
_chemical_formula_weight         222.14

loop_
_atom_type_symbol
_atom_type_description
_atom_type_scat_dispersion_real
_atom_type_scat_dispersion_imag
_atom_type_scat_source
C C 0.0033 0.0016 'International Tables Vol C Tables 4.2.6.8 and 6.1.1.4'
N N 0.0061 0.0033 'International Tables Vol C Tables 4.2.6.8 and 6.1.1.4'
O O 0.0106 0.0060 'International Tables Vol C Tables 4.2.6.8 and 6.1.1.4'
H H 0.0000 0.0000 'International Tables Vol C Tables 4.2.6.8 and 6.1.1.4'

_symmetry_cell_setting           orthorhombic
_symmetry_space_group_name_H-M   'P b c a'
_symmetry_int_tables_number      61
_symmetry_space_group_name_Hall  '-P 2ac 2ab'

loop_
_symmetry_equiv_pos_as_xyz
'x, y, z'
'-x+1/2, -y, z+1/2'
'x+1/2, -y+1/2, -z'
'-x, y+1/2, -z+1/2'
'-x, -y, -z'
'x-1/2, y, -z-1/2'
'-x-1/2, y-1/2, z'
'x, -y-1/2, z-1/2'

_cell_length_a                   11.5100(5)
_cell_length_b                   10.6532(5)
_cell_length_c                   13.1969(6)
_cell_angle_alpha                90.00
_cell_angle_beta                 90.00
_cell_angle_gamma                90.00
_cell_volume                     1618.18(13)
_cell_formula_units_Z            8
_cell_measurement_temperature    173(2)
_cell_measurement_reflns_used    1691
_cell_measurement_theta_min      4.9270
_cell_measurement_theta_max      31.6760

_exptl_crystal_description       block
_exptl_crystal_colour            colorless
_exptl_crystal_size_max          0.40
_exptl_crystal_size_mid          0.40
_exptl_crystal_size_min          0.25
_exptl_crystal_density_meas      ?
_exptl_crystal_density_diffrn    1.824
_exptl_crystal_density_method    'not measured'
_exptl_crystal_F_000             912
_exptl_absorpt_coefficient_mu    0.173
_exptl_absorpt_correction_T_min  0.98217
_exptl_absorpt_correction_T_max  1.00000
_exptl_absorpt_correction_type   multi-scan
_exptl_absorpt_process_details   
'SCALE3 ABSPACK in CrysAlisPro 1.171.36.24 (Agilent Technologies, 2012)'

_diffrn_ambient_temperature      173(2)
_diffrn_radiation_wavelength     0.71073
_diffrn_radiation_type           'Mo K\a'
_diffrn_radiation_source         'fine-focus sealed tube'
_diffrn_radiation_monochromator  graphite
_diffrn_measurement_device_type  'Oxford Diffraction Xcalibur 3 CCD'
_diffrn_measurement_method       '\w scans'
_diffrn_detector_area_resol_mean 15.9809
_diffrn_standards_number         ?
_diffrn_standards_interval_count ?
_diffrn_standards_interval_time  ?
_diffrn_standards_decay_%        ?
_diffrn_reflns_number            4095
_diffrn_reflns_av_R_equivalents  0.0203
_diffrn_reflns_av_sigmaI/netI    0.0236
_diffrn_reflns_limit_h_min       -11
_diffrn_reflns_limit_h_max       14
_diffrn_reflns_limit_k_min       -10
_diffrn_reflns_limit_k_max       13
_diffrn_reflns_limit_l_min       -16
_diffrn_reflns_limit_l_max       13
_diffrn_reflns_theta_min         4.31
_diffrn_reflns_theta_max         25.99
_reflns_number_total             1581
_reflns_number_gt                1358
_reflns_threshold_expression     >2\s(I)

_computing_data_collection       
'CrysAlisPro 1.171.36.24 (Agilent Technologies, 2012)'
_computing_cell_refinement       
'CrysAlisPro 1.171.36.24 (Agilent Technologies, 2012)'
_computing_data_reduction        
'CrysAlisPro 1.171.36.24 (Agilent Technologies, 2012)'
_computing_structure_solution    'SHELXS-97 (Sheldrick, 2008)'
_computing_structure_refinement  'SHELXL-97 (Sheldrick, 2008)'

_refine_special_details          
;
Refinement of F^2^ against ALL reflections. The weighted R-factor wR and
goodness of fit S are based on F^2^, conventional R-factors R are based
on F, with F set to zero for negative F^2^. The threshold expression of
F^2^ > 2\s(F^2^) is used only for calculating R-factors(gt) etc. and is
not relevant to the choice of reflections for refinement. R-factors based
on F^2^ are statistically about twice as large as those based on F, and R-
factors based on ALL data will be even larger.
;

_refine_ls_structure_factor_coef Fsqd
_refine_ls_matrix_type           full
_refine_ls_weighting_scheme      calc
_refine_ls_weighting_details     
'calc w=1/[\s^2^(Fo^2^)+(0.0437P)^2^+0.4645P] where P=(Fo^2^+2Fc^2^)/3'
_atom_sites_solution_primary     direct
_atom_sites_solution_secondary   difmap
_atom_sites_solution_hydrogens   geom
_refine_ls_hydrogen_treatment    constr
_refine_ls_extinction_method     none
_refine_ls_extinction_coef       ?
_refine_ls_number_reflns         1581
_refine_ls_number_parameters     136
_refine_ls_number_restraints     0
_refine_ls_R_factor_all          0.0399
_refine_ls_R_factor_gt           0.0330
_refine_ls_wR_factor_ref         0.0906
_refine_ls_wR_factor_gt          0.0833
_refine_ls_goodness_of_fit_ref   1.090
_refine_ls_restrained_S_all      1.090
_refine_ls_shift/su_max          0.000
_refine_ls_shift/su_mean         0.000

loop_
_atom_site_label
_atom_site_type_symbol
_atom_site_fract_x
_atom_site_fract_y
_atom_site_fract_z
_atom_site_U_iso_or_equiv
_atom_site_adp_type
_atom_site_occupancy
_atom_site_symmetry_multiplicity
_atom_site_calc_flag
_atom_site_refinement_flags
_atom_site_disorder_assembly
_atom_site_disorder_group
O4 O 0.46624(10) 0.36447(11) 0.52587(10) 0.0351(3) Uani 1 1 d . . .
O3 O 0.35180(10) 0.24635(12) 0.61542(8) 0.0329(3) Uani 1 1 d . . .
O2 O 0.31744(11) -0.03070(11) 0.57130(9) 0.0337(3) Uani 1 1 d . . .
O1 O 0.43143(10) -0.10263(11) 0.45343(10) 0.0348(3) Uani 1 1 d . . .
O6 O 0.56798(9) 0.06596(11) 0.23374(8) 0.0270(3) Uani 1 1 d . . .
O5 O 0.59316(9) 0.26339(11) 0.27131(9) 0.0316(3) Uani 1 1 d . . .
N2 N 0.31904(10) 0.26572(12) 0.44828(9) 0.0179(3) Uani 1 1 d . . .
N1 N 0.29728(10) 0.04240(12) 0.41320(9) 0.0192(3) Uani 1 1 d . . .
N3 N 0.43485(10) 0.16530(11) 0.32512(9) 0.0197(3) Uani 1 1 d . . .
N5 N 0.38547(10) 0.29170(12) 0.53587(9) 0.0225(3) Uani 1 1 d . . .
N4 N 0.35448(11) -0.03329(12) 0.48469(10) 0.0236(3) Uani 1 1 d . . .
N6 N 0.53712(10) 0.16512(12) 0.27296(9) 0.0206(3) Uani 1 1 d . . .
C1 C 0.24175(12) 0.15657(14) 0.45176(10) 0.0190(3) Uani 1 1 d . . .
H1A H 0.1714 0.1744 0.4110 0.023 Uiso 1 1 calc R . .
H1B H 0.2169 0.1423 0.5226 0.023 Uiso 1 1 calc R . .
C3 C 0.35671(12) 0.05760(14) 0.31621(11) 0.0215(3) Uani 1 1 d . . .
H3A H 0.2994 0.0722 0.2615 0.026 Uiso 1 1 calc R . .
H3B H 0.4015 -0.0191 0.2998 0.026 Uiso 1 1 calc R . .
C2 C 0.37890(12) 0.28400(13) 0.35200(11) 0.0200(3) Uani 1 1 d . . .
H2A H 0.4378 0.3512 0.3585 0.024 Uiso 1 1 calc R . .
H2B H 0.3227 0.3086 0.2988 0.024 Uiso 1 1 calc R . .

loop_
_atom_site_aniso_label
_atom_site_aniso_U_11
_atom_site_aniso_U_22
_atom_site_aniso_U_33
_atom_site_aniso_U_23
_atom_site_aniso_U_13
_atom_site_aniso_U_12
O4 0.0314(6) 0.0314(7) 0.0424(7) -0.0051(6) -0.0108(5) -0.0086(5)
O3 0.0412(7) 0.0425(7) 0.0151(5) -0.0006(5) -0.0034(5) 0.0036(6)
O2 0.0440(7) 0.0326(7) 0.0245(6) 0.0090(5) -0.0076(5) -0.0086(5)
O1 0.0269(6) 0.0215(6) 0.0559(8) 0.0003(6) -0.0111(5) 0.0048(5)
O6 0.0254(6) 0.0323(6) 0.0233(6) -0.0025(5) 0.0058(4) 0.0090(5)
O5 0.0249(6) 0.0310(7) 0.0388(7) 0.0070(5) 0.0078(5) -0.0053(5)
N2 0.0182(6) 0.0213(7) 0.0142(6) -0.0020(5) -0.0012(5) 0.0020(5)
N1 0.0180(6) 0.0198(6) 0.0198(6) 0.0032(5) -0.0005(5) 0.0001(5)
N3 0.0192(6) 0.0190(6) 0.0210(6) -0.0004(5) 0.0073(5) 0.0005(5)
N5 0.0228(6) 0.0233(7) 0.0212(6) -0.0045(5) -0.0052(5) 0.0061(5)
N4 0.0214(6) 0.0186(7) 0.0307(7) 0.0040(5) -0.0079(5) -0.0058(5)
N6 0.0178(6) 0.0273(7) 0.0166(6) 0.0060(5) 0.0016(5) 0.0027(5)
C1 0.0137(7) 0.0250(8) 0.0185(7) -0.0004(6) 0.0005(5) 0.0006(6)
C3 0.0215(7) 0.0220(8) 0.0211(7) -0.0041(6) 0.0034(6) 0.0001(6)
C2 0.0246(7) 0.0172(7) 0.0183(7) 0.0016(6) 0.0023(6) 0.0020(6)

_geom_special_details            
;
All s.u.'s (except the s.u. in the dihedral angle between two l.s. planes)
are estimated using the full covariance matrix. The cell s.u.'s are taken
into account individually in the estimation of s.u.'s in distances, angles
and torsion angles; correlations between s.u.'s in cell parameters are only
used when they are defined by crystal symmetry. An approximate (isotropic)
treatment of cell s.u.'s is used for estimating s.u.'s involving l.s. planes.
;

loop_
_geom_bond_atom_site_label_1
_geom_bond_atom_site_label_2
_geom_bond_distance
_geom_bond_site_symmetry_2
_geom_bond_publ_flag
O4 N5 1.2175(17) . ?
O3 N5 1.2189(17) . ?
O2 N4 1.2202(17) . ?
O1 N4 1.2248(17) . ?
O6 N6 1.2289(17) . ?
O5 N6 1.2297(16) . ?
N2 N5 1.4133(16) . ?
N2 C2 1.4584(18) . ?
N2 C1 1.4649(18) . ?
N1 N4 1.4049(17) . ?
N1 C3 1.4603(18) . ?
N1 C1 1.4652(18) . ?
N3 N6 1.3636(16) . ?
N3 C3 1.4627(18) . ?
N3 C2 1.4627(18) . ?
C1 H1A 0.9900 . ?
C1 H1B 0.9900 . ?
C3 H3A 0.9900 . ?
C3 H3B 0.9900 . ?
C2 H2A 0.9900 . ?
C2 H2B 0.9900 . ?

loop_
_geom_angle_atom_site_label_1
_geom_angle_atom_site_label_2
_geom_angle_atom_site_label_3
_geom_angle
_geom_angle_site_symmetry_1
_geom_angle_site_symmetry_3
_geom_angle_publ_flag
N5 N2 C2 115.52(11) . . ?
N5 N2 C1 117.29(11) . . ?
C2 N2 C1 114.85(11) . . ?
N4 N1 C3 115.64(11) . . ?
N4 N1 C1 116.59(11) . . ?
C3 N1 C1 114.63(11) . . ?
N6 N3 C3 119.28(11) . . ?
N6 N3 C2 120.25(12) . . ?
C3 N3 C2 115.27(11) . . ?
O4 N5 O3 126.05(13) . . ?
O4 N5 N2 116.69(12) . . ?
O3 N5 N2 117.05(12) . . ?
O2 N4 O1 125.58(13) . . ?
O2 N4 N1 116.89(12) . . ?
O1 N4 N1 117.31(13) . . ?
O6 N6 O5 124.94(12) . . ?
O6 N6 N3 117.60(12) . . ?
O5 N6 N3 117.42(12) . . ?
N2 C1 N1 112.53(11) . . ?
N2 C1 H1A 109.1 . . ?
N1 C1 H1A 109.1 . . ?
N2 C1 H1B 109.1 . . ?
N1 C1 H1B 109.1 . . ?
H1A C1 H1B 107.8 . . ?
N1 C3 N3 107.73(11) . . ?
N1 C3 H3A 110.2 . . ?
N3 C3 H3A 110.2 . . ?
N1 C3 H3B 110.2 . . ?
N3 C3 H3B 110.2 . . ?
H3A C3 H3B 108.5 . . ?
N2 C2 N3 107.69(11) . . ?
N2 C2 H2A 110.2 . . ?
N3 C2 H2A 110.2 . . ?
N2 C2 H2B 110.2 . . ?
N3 C2 H2B 110.2 . . ?
H2A C2 H2B 108.5 . . ?

loop_
_geom_torsion_atom_site_label_1
_geom_torsion_atom_site_label_2
_geom_torsion_atom_site_label_3
_geom_torsion_atom_site_label_4
_geom_torsion
_geom_torsion_site_symmetry_1
_geom_torsion_site_symmetry_2
_geom_torsion_site_symmetry_3
_geom_torsion_site_symmetry_4
_geom_torsion_publ_flag
C2 N2 N5 O4 24.52(17) . . . . ?
C1 N2 N5 O4 164.89(12) . . . . ?
C2 N2 N5 O3 -160.49(13) . . . . ?
C1 N2 N5 O3 -20.12(17) . . . . ?
C3 N1 N4 O2 168.01(12) . . . . ?
C1 N1 N4 O2 28.78(17) . . . . ?
C3 N1 N4 O1 -17.10(17) . . . . ?
C1 N1 N4 O1 -156.33(12) . . . . ?
C3 N3 N6 O6 -11.59(18) . . . . ?
C2 N3 N6 O6 -164.92(12) . . . . ?
C3 N3 N6 O5 170.51(12) . . . . ?
C2 N3 N6 O5 17.18(18) . . . . ?
N5 N2 C1 N1 -92.44(14) . . . . ?
C2 N2 C1 N1 48.19(15) . . . . ?
N4 N1 C1 N2 91.43(13) . . . . ?
C3 N1 C1 N2 -48.21(15) . . . . ?
N4 N1 C3 N3 -88.42(14) . . . . ?
C1 N1 C3 N3 51.61(15) . . . . ?
N6 N3 C3 N1 147.12(12) . . . . ?
C2 N3 C3 N1 -58.27(15) . . . . ?
N5 N2 C2 N3 89.90(14) . . . . ?
C1 N2 C2 N3 -51.44(15) . . . . ?
N6 N3 C2 N2 -147.53(12) . . . . ?
C3 N3 C2 N2 58.13(15) . . . . ?

_diffrn_measured_fraction_theta_max 0.994
_diffrn_reflns_theta_full        25.99
_diffrn_measured_fraction_theta_full 0.994
_refine_diff_density_max         0.195
_refine_diff_density_min         -0.238
_refine_diff_density_rms         0.051


