####################################################################### 
# 
# This file contains crystal structure data downloaded from the 
# Cambridge Structural Database (CSD) hosted by the Cambridge 
# Crystallographic Data Centre (CCDC).
# 
# Full information about CCDC data access policies and citation 
# guidelines are available at http://www.ccdc.cam.ac.uk/access/V1 
# 
# Audit and citation data items may have been added by the CCDC. 
# Please retain this information to preserve the provenance of 
# this file and to allow appropriate attribution of the data. 
# 
#######################################################################

data_DCLETH02
_audit_block_doi                 10.5517/cc3qqm4
#This CIF has been generated from an entry in the Cambridge Structural Database
_database_code_depnum_ccdc_archive 'CCDC 111216'
_database_code_CSD               DCLETH02
_audit_creation_method           'Created from the CSD'
_audit_update_record             
;
2016-05-05 downloaded from the CCDC.
;
_database_code_depnum_ccdc_fiz   'CSD 320279'
_database_code_NBS               611666
_chemical_formula_moiety         'C2 H4 Cl2'
_chemical_name_systematic        1,2-Dichloroethane
_chemical_absolute_configuration unk
_diffrn_ambient_temperature      110
_exptl_crystal_density_diffrn    1.601
#These two values have been output from a single CSD field.
_refine_ls_R_factor_gt           0.017
_refine_ls_wR_factor_gt          0.017
_diffrn_radiation_probe          x-ray
_symmetry_cell_setting           monoclinic
_symmetry_space_group_name_H-M   'P 21/c'
_symmetry_Int_Tables_number      14
_space_group_name_Hall           '-P 2ybc'
loop_
_symmetry_equiv_pos_site_id
_symmetry_equiv_pos_as_xyz
1 x,y,z
2 -x,1/2+y,1/2-z
3 -x,-y,-z
4 x,1/2-y,1/2+z
_cell_length_a                   4.819(2)
_cell_length_b                   5.349(3)
_cell_length_c                   8.149(3)
_cell_angle_alpha                90
_cell_angle_beta                 102.26(3)
_cell_angle_gamma                90
_cell_volume                     205.265
_cell_formula_units_Z            2
loop_
_atom_site_label
_atom_site_type_symbol
_atom_site_fract_x
_atom_site_fract_y
_atom_site_fract_z
Cl1 Cl 0.82153(4) 0.22208(5) 0.58389(3)
C1 C 0.59541(18) 0.48787(16) 0.58556(10)
H1 H 0.7206(27) 0.6285(28) 0.6166(15)
H2 H 0.4916(28) 0.4574(24) 0.6690(18)
C1B C 0.40459(18) 0.51213(16) 0.41444(10)
Cl1B Cl 0.17847(4) 0.77792(5) 0.41611(3)
H1B H 0.2794(27) 0.3715(28) 0.3834(15)
H2B H 0.5084(28) 0.5426(24) 0.3310(18)

#END
