####################################################################### 
# 
# This file contains crystal structure data downloaded from the 
# Cambridge Structural Database (CSD) hosted by the Cambridge 
# Crystallographic Data Centre (CCDC).
# 
# Full information about CCDC data access policies and citation 
# guidelines are available at http://www.ccdc.cam.ac.uk/access/V1 
# 
# Audit and citation data items may have been added by the CCDC. 
# Please retain this information to preserve the provenance of 
# this file and to allow appropriate attribution of the data. 
# 
#######################################################################

data_dk1
_audit_block_doi                 10.5517/cc7w4t1
_database_code_depnum_ccdc_archive 'CCDC 234633'
loop_
_citation_id
_citation_doi
_citation_year
1 10.1524/zkri.219.9.573.44041 2004
_audit_update_record             
;
2004-03-25 deposited with the CCDC.
2016-05-05 downloaded from the CCDC.
;

_audit_creation_method           SHELXL-97
_chemical_name_systematic        
;
1,2-Dichloroethane
;
_chemical_name_common            ?
_chemical_melting_point          ?
_chemical_formula_moiety         ?
_chemical_formula_sum            'C2 H4 Cl2'
_chemical_formula_weight         98.95

loop_
_atom_type_symbol
_atom_type_description
_atom_type_scat_dispersion_real
_atom_type_scat_dispersion_imag
_atom_type_scat_source
C C 0.0033 0.0016 'International Tables Vol C Tables 4.2.6.8 and 6.1.1.4'
H H 0.0000 0.0000 'International Tables Vol C Tables 4.2.6.8 and 6.1.1.4'
Cl Cl 0.1484 0.1585 'International Tables Vol C Tables 4.2.6.8 and 6.1.1.4'

_symmetry_cell_setting           Monoclinic
_symmetry_space_group_name_H-M   'P 1 2~1~/c 1'

loop_
_symmetry_equiv_pos_as_xyz
'x, y, z'
'-x, y+1/2, -z+1/2'
'-x, -y, -z'
'x, -y-1/2, z-1/2'

_cell_length_a                   5.1424(9)
_cell_length_b                   5.491(2)
_cell_length_c                   7.940(5)
_cell_angle_alpha                90.00
_cell_angle_beta                 110.86(3)
_cell_angle_gamma                90.00
_cell_volume                     209.49(15)
_cell_formula_units_Z            2
_cell_measurement_temperature    280.0(5)
_cell_measurement_pressure_GPa   0.70(5)
_cell_measurement_reflns_used    865
_cell_measurement_theta_min      3.73
_cell_measurement_theta_max      24.06

_exptl_crystal_description       disc
_exptl_crystal_colour            colourless
_exptl_crystal_size_max          0.37
_exptl_crystal_size_mid          0.37
_exptl_crystal_size_min          0.12
_exptl_crystal_density_meas      ?
_exptl_crystal_density_diffrn    1.569
_exptl_crystal_density_method    'not measured'
_exptl_crystal_F_000             100
_exptl_absorpt_coefficient_mu    1.319
_exptl_absorpt_correction_type   'high-pressure cell (REDSHAD, Katrusiak 2003)'
_exptl_absorpt_correction_T_min  0.6411
_exptl_absorpt_correction_T_max  0.8578
_exptl_absorpt_process_details   ?

_exptl_special_details           
;
The structure was determined at 280 K and 0.7 GPa.
;

_diffrn_ambient_temperature      295(2)
_diffrn_radiation_wavelength     0.71073
_diffrn_radiation_type           MoK\a
_diffrn_radiation_source         'fine-focus sealed tube'
_diffrn_radiation_monochromator  graphite
_diffrn_measurement_device_type  'KM-4 CCD'
_diffrn_measurement_method       \w-scans
_diffrn_detector_area_resol_mean '1024 x 1024'
_diffrn_standards_number         ?
_diffrn_standards_interval_count ?
_diffrn_standards_interval_time  ?
_diffrn_standards_decay_%        negligible
_diffrn_reflns_number            1180
_diffrn_reflns_av_R_equivalents  0.0550
_diffrn_reflns_av_sigmaI/netI    0.0261
_diffrn_reflns_limit_h_min       -6
_diffrn_reflns_limit_h_max       6
_diffrn_reflns_limit_k_min       -6
_diffrn_reflns_limit_k_max       6
_diffrn_reflns_limit_l_min       -6
_diffrn_reflns_limit_l_max       6
_diffrn_reflns_theta_min         4.24
_diffrn_reflns_theta_max         24.97
_reflns_number_total             193
_reflns_number_gt                172
_reflns_threshold_expression     >2sigma(I)

_computing_data_collection       
;Oxford Diffraction, CrysAlis CCD, Data Collection GUI for CCD,
ver. 1.170.10 beta (Oxford Diffraction Poland 2003)
;
_computing_cell_refinement       
;Oxford Diffraction, CrysAlis RED, Data reduction GUI,
ver. 1.170.10 beta (Oxford Diffraction Poland 2003)
;
_computing_data_reduction        
;Oxford Diffraction, CrysAlis RED, Data reduction GUI,
ver. 1.170.10 beta (Oxford Diffraction Poland 2003)
REDSHAD, Program for the correcting reflections intensities for DAC
absorption, gasket shadowing and sample crystal absorption. (Andrzej
Katrusiak, Adam Mickewicz University, Pozna\'n, Poland 2003)
;
_computing_structure_solution    'SHELXS-97 (Sheldrick, 1990)'
_computing_structure_refinement  'SHELXL-97 (Sheldrick, 1997)'
_computing_molecular_graphics    'SHELXTL (Sheldrick, 1990)'
_computing_publication_material  'SHELXL-97 (Sheldrick, 1997)'

_refine_special_details          
;
Refinement of F^2^ against ALL reflections. The weighted R-factor wR and
goodness of fit S are based on F^2^, conventional R-factors R are based
on F, with F set to zero for negative F^2^. The threshold expression of
F^2^ > 2sigma(F^2^) is used only for calculating R-factors(gt) etc. and is
not relevant to the choice of reflections for refinement. R-factors based
on F^2^ are statistically about twice as large as those based on F, and R-
factors based on ALL data will be even larger.
The ethylene groups in the molecules are rotationally
discordered with equal occupanies at two positions one rotated by 180 deg
from the other about the axis through the Cl---Cl intramolecular line
;

_refine_ls_structure_factor_coef Fsqd
_refine_ls_matrix_type           full
_refine_ls_weighting_scheme      calc
_refine_ls_weighting_details     
'calc w=1/[\s^2^(Fo^2^)+(0.0000P)^2^+0.2419P] where P=(Fo^2^+2Fc^2^)/3'
_atom_sites_solution_primary     Patterson
_atom_sites_solution_secondary   difmap
_atom_sites_solution_hydrogens   geom
_refine_ls_hydrogen_treatment    constr
_refine_ls_extinction_method     SHELXL
_refine_ls_extinction_coef       0.012(17)
_refine_ls_extinction_expression Fc^*^=kFc[1+0.001xFc^2^\l^3^/sin(2\q)]^-1/4^
_refine_ls_number_reflns         193
_refine_ls_number_parameters     30
_refine_ls_number_restraints     18
_refine_ls_R_factor_all          0.0587
_refine_ls_R_factor_gt           0.0483
_refine_ls_wR_factor_ref         0.0843
_refine_ls_wR_factor_gt          0.0806
_refine_ls_goodness_of_fit_ref   1.360
_refine_ls_restrained_S_all      1.317
_refine_ls_shift/su_max          0.000
_refine_ls_shift/su_mean         0.000

loop_
_atom_site_label
_atom_site_type_symbol
_atom_site_fract_x
_atom_site_fract_y
_atom_site_fract_z
_atom_site_U_iso_or_equiv
_atom_site_adp_type
_atom_site_occupancy
_atom_site_symmetry_multiplicity
_atom_site_calc_flag
_atom_site_refinement_flags
_atom_site_disorder_assembly
_atom_site_disorder_group
Cl1 Cl 0.3054(3) 0.2829(3) 0.0760(4) 0.0930(12) Uani 1 1 d . . .
C11 C -0.006(9) -0.092(5) 0.043(7) 0.164(11) Uani 0.50 1 d PU . 1
H111 H -0.0155 -0.0449 0.1579 0.17(4) Uiso 0.50 1 calc PR . 1
H112 H 0.1626 -0.1866 0.0658 0.17(4) Uiso 0.50 1 calc PR . 1
C12 C 0.109(5) 0.019(7) 0.050(6) 0.162(11) Uani 0.50 1 d PU . 2
H121 H 0.2241 -0.1098 0.0300 0.17(4) Uiso 0.50 1 calc PR . 2
H122 H 0.0984 -0.0127 0.1676 0.17(4) Uiso 0.50 1 calc PR . 2

loop_
_atom_site_aniso_label
_atom_site_aniso_U_11
_atom_site_aniso_U_22
_atom_site_aniso_U_33
_atom_site_aniso_U_23
_atom_site_aniso_U_13
_atom_site_aniso_U_12
Cl1 0.0802(13) 0.0755(13) 0.120(3) -0.0078(10) 0.0321(14) -0.0192(8)
C11 0.11(2) 0.072(16) 0.23(4) 0.048(15) -0.04(2) -0.029(12)
C12 0.085(15) 0.080(19) 0.24(4) 0.046(15) -0.045(18) -0.040(11)

_geom_special_details            
;
All esds (except the esd in the dihedral angle between two l.s. planes)
are estimated using the full covariance matrix. The cell esds are taken
into account individually in the estimation of esds in distances, angles
and torsion angles; correlations between esds in cell parameters are only
used when they are defined by crystal symmetry. An approximate (isotropic)
treatment of cell esds is used for estimating esds involving l.s. planes.
;

loop_
_geom_bond_atom_site_label_1
_geom_bond_atom_site_label_2
_geom_bond_distance
_geom_bond_site_symmetry_2
_geom_bond_publ_flag
Cl1 C11 1.82(5) 3 y
Cl1 C12 1.74(4) . y
C11 H111 0.9700 . y
C11 H112 0.9700 . y
C12 H121 0.9700 . y
C12 H122 0.9700 . y
C11 C11 1.23(6) 3 ?
C12 C12 1.14(6) 3 ?

loop_
_geom_angle_atom_site_label_1
_geom_angle_atom_site_label_2
_geom_angle_atom_site_label_3
_geom_angle
_geom_angle_site_symmetry_1
_geom_angle_site_symmetry_3
_geom_angle_publ_flag
C11 C11 Cl1 113(6) 3 3 y
C12 C12 Cl1 128(5) 3 . y
Cl1 C11 H111 109.0 3 . y
Cl1 C12 H121 105.2 . . y
Cl1 C11 H112 109.0 3 . y
Cl1 C12 H122 105.2 . . y
C11 C11 H111 109.0 3 . y
C12 C12 H121 105.2 3 . y
C11 C11 H112 109.0 3 . y
C12 C12 H122 105.2 3 . y
H111 C11 H112 107.8 . . y
H121 C12 H122 105.9 . . y
C12 Cl1 C11 27.2(11) . 3 ?


_diffrn_measured_fraction_theta_max 0.523
_diffrn_reflns_theta_full        24.97
_diffrn_measured_fraction_theta_full 0.523
_refine_diff_density_max         0.147
_refine_diff_density_min         -0.114
_refine_diff_density_rms         0.037
