####################################################################### 
# 
# This file contains crystal structure data downloaded from the 
# Cambridge Structural Database (CSD) hosted by the Cambridge 
# Crystallographic Data Centre (CCDC).
# 
# Full information about CCDC data access policies and citation 
# guidelines are available at http://www.ccdc.cam.ac.uk/access/V1 
# 
# Audit and citation data items may have been added by the CCDC. 
# Please retain this information to preserve the provenance of 
# this file and to allow appropriate attribution of the data. 
# 
#######################################################################

data_03HUR750
_audit_block_doi                 10.5517/cc7h9xx
_database_code_depnum_ccdc_archive 'CCDC 223259'
_audit_update_record             
;
2003-10-31 deposited with the CCDC.
2016-04-28 downloaded from the CCDC.
;

_audit_creation_method           SHELXL-97
_chemical_name_systematic        
;
?
;
_chemical_name_common            ?
_chemical_melting_point          ?
_chemical_formula_moiety         ?
_chemical_formula_sum            'C6 H3 Cl3'
_chemical_formula_weight         181.43

loop_
_atom_type_symbol
_atom_type_description
_atom_type_scat_dispersion_real
_atom_type_scat_dispersion_imag
_atom_type_scat_source
C C 0.0033 0.0016 'International Tables Vol C Tables 4.2.6.8 and 6.1.1.4'
H H 0.0000 0.0000 'International Tables Vol C Tables 4.2.6.8 and 6.1.1.4'
Cl Cl 0.1484 0.1585 'International Tables Vol C Tables 4.2.6.8 and 6.1.1.4'

_symmetry_cell_setting           Orthorhombic
_symmetry_space_group_name_H-M   P2(1)2(1)2(1)

loop_
_symmetry_equiv_pos_as_xyz
'x, y, z'
'-x+1/2, -y, z+1/2'
'-x, y+1/2, -z+1/2'
'x+1/2, -y+1/2, -z'

_cell_length_a                   3.8422(2)
_cell_length_b                   13.0973(7)
_cell_length_c                   13.7984(9)
_cell_angle_alpha                90.00
_cell_angle_beta                 90.00
_cell_angle_gamma                90.00
_cell_volume                     694.37(7)
_cell_formula_units_Z            4
_cell_measurement_temperature    120(2)
_cell_measurement_reflns_used    ?
_cell_measurement_theta_min      ?
_cell_measurement_theta_max      ?

_exptl_crystal_description       Needle
_exptl_crystal_colour            colourless
_exptl_crystal_size_max          0.30
_exptl_crystal_size_mid          0.04
_exptl_crystal_size_min          0.04
_exptl_crystal_density_meas      ?
_exptl_crystal_density_diffrn    1.736
_exptl_crystal_density_method    'not measured'
_exptl_crystal_F_000             360
_exptl_absorpt_coefficient_mu    1.213
_exptl_absorpt_correction_type   ?
_exptl_absorpt_correction_T_min  0.7124
_exptl_absorpt_correction_T_max  0.9531
_exptl_absorpt_process_details   ?

_exptl_special_details           
;
?
;

_diffrn_ambient_temperature      120(2)
_diffrn_radiation_wavelength     0.71073
_diffrn_radiation_type           MoK\a
_diffrn_radiation_source         'fine-focus sealed tube'
_diffrn_radiation_monochromator  graphite
_diffrn_measurement_device_type  ?
_diffrn_measurement_method       ?
_diffrn_detector_area_resol_mean ?
_diffrn_standards_number         ?
_diffrn_standards_interval_count ?
_diffrn_standards_interval_time  ?
_diffrn_standards_decay_%        ?
_diffrn_reflns_number            3922
_diffrn_reflns_av_R_equivalents  0.0395
_diffrn_reflns_av_sigmaI/netI    0.0569
_diffrn_reflns_limit_h_min       -4
_diffrn_reflns_limit_h_max       4
_diffrn_reflns_limit_k_min       -16
_diffrn_reflns_limit_k_max       14
_diffrn_reflns_limit_l_min       -13
_diffrn_reflns_limit_l_max       17
_diffrn_reflns_theta_min         2.95
_diffrn_reflns_theta_max         25.99
_reflns_number_total             1347
_reflns_number_gt                1161
_reflns_threshold_expression     >2sigma(I)

_computing_data_collection       ?
_computing_cell_refinement       ?
_computing_data_reduction        ?
_computing_structure_solution    'SHELXS-97 (Sheldrick, 1990)'
_computing_structure_refinement  'SHELXL-97 (Sheldrick, 1997)'
_computing_molecular_graphics    ?
_computing_publication_material  ?

_refine_special_details          
;
Refinement of F^2^ against ALL reflections.  The weighted R-factor wR and
goodness of fit S are based on F^2^, conventional R-factors R are based
on F, with F set to zero for negative F^2^. The threshold expression of
F^2^ > 2sigma(F^2^) is used only for calculating R-factors(gt) etc. and is
not relevant to the choice of reflections for refinement.  R-factors based
on F^2^ are statistically about twice as large as those based on F, and R-
factors based on ALL data will be even larger.
;

_refine_ls_structure_factor_coef Fsqd
_refine_ls_matrix_type           full
_refine_ls_weighting_scheme      calc
_refine_ls_weighting_details     
'calc w=1/[\s^2^(Fo^2^)+(0.1000P)^2^+0.0000P] where P=(Fo^2^+2Fc^2^)/3'
_atom_sites_solution_primary     direct
_atom_sites_solution_secondary   difmap
_atom_sites_solution_hydrogens   geom
_refine_ls_hydrogen_treatment    mixed
_refine_ls_extinction_method     SHELXL
_refine_ls_extinction_coef       0.002(3)
_refine_ls_extinction_expression Fc^*^=kFc[1+0.001xFc^2^\l^3^/sin(2\q)]^-1/4^
_refine_ls_abs_structure_details 'Flack H D (1983), Acta Cryst. A39, 876-881'
_refine_ls_abs_structure_Flack   0.37(14)
_refine_ls_number_reflns         1347
_refine_ls_number_parameters     87
_refine_ls_number_restraints     0
_refine_ls_R_factor_all          0.0413
_refine_ls_R_factor_gt           0.0301
_refine_ls_wR_factor_ref         0.0897
_refine_ls_wR_factor_gt          0.0805
_refine_ls_goodness_of_fit_ref   0.639
_refine_ls_restrained_S_all      0.639
_refine_ls_shift/su_max          0.006
_refine_ls_shift/su_mean         0.001

loop_
_atom_site_label
_atom_site_type_symbol
_atom_site_fract_x
_atom_site_fract_y
_atom_site_fract_z
_atom_site_U_iso_or_equiv
_atom_site_adp_type
_atom_site_occupancy
_atom_site_symmetry_multiplicity
_atom_site_calc_flag
_atom_site_refinement_flags
_atom_site_disorder_assembly
_atom_site_disorder_group
Cl1 Cl 0.06469(19) -0.39125(5) 0.38918(5) 0.0241(2) Uani 1 1 d . . .
Cl2 Cl 0.63202(19) -0.18574(6) 0.09056(5) 0.0256(2) Uani 1 1 d . . .
Cl3 Cl 0.1584(2) 0.01844(6) 0.40295(6) 0.0264(2) Uani 1 1 d . . .
C1 C 0.1917(7) -0.2768(2) 0.3356(2) 0.0173(6) Uani 1 1 d . . .
C2 C 0.3432(8) -0.2778(2) 0.2449(2) 0.0175(6) Uani 1 1 d . . .
H2 H 0.3795 -0.3402 0.2112 0.019(8) Uiso 1 1 calc R . .
C3 C 0.4407(7) -0.1855(2) 0.20458(19) 0.0184(7) Uani 1 1 d . . .
C4 C 0.3880(7) -0.0933(2) 0.2515(2) 0.0206(7) Uani 1 1 d . . .
H4 H 0.4553 -0.0306 0.2225 0.032(10) Uiso 1 1 calc R . .
C5 C 0.2337(7) -0.0959(2) 0.3421(2) 0.0189(7) Uani 1 1 d . . .
C6 C 0.1345(7) -0.1862(2) 0.3861(2) 0.0192(6) Uani 1 1 d . . .
H6 H 0.0308 -0.1864 0.4486 0.022(8) Uiso 1 1 calc R . .

loop_
_atom_site_aniso_label
_atom_site_aniso_U_11
_atom_site_aniso_U_22
_atom_site_aniso_U_33
_atom_site_aniso_U_23
_atom_site_aniso_U_13
_atom_site_aniso_U_12
Cl1 0.0285(4) 0.0180(4) 0.0258(4) 0.0017(3) 0.0014(3) -0.0035(3)
Cl2 0.0260(4) 0.0352(5) 0.0156(4) 0.0015(3) 0.0020(3) 0.0017(3)
Cl3 0.0322(5) 0.0168(4) 0.0304(5) -0.0037(3) 0.0029(4) 0.0032(3)
C1 0.0144(15) 0.0190(15) 0.0185(16) 0.0044(12) -0.0028(12) 0.0015(12)
C2 0.0182(14) 0.0178(15) 0.0166(14) -0.0047(12) -0.0048(12) 0.0018(12)
C3 0.0145(16) 0.0279(17) 0.0129(14) 0.0015(13) -0.0014(11) 0.0020(13)
C4 0.0179(15) 0.0190(17) 0.0249(16) 0.0040(13) -0.0049(13) -0.0009(13)
C5 0.0200(16) 0.0150(15) 0.0217(17) -0.0061(13) -0.0017(11) 0.0023(13)
C6 0.0186(15) 0.0227(15) 0.0163(14) 0.0002(12) 0.0029(12) -0.0004(12)

_geom_special_details            
;
All esds (except the esd in the dihedral angle between two l.s. planes)
are estimated using the full covariance matrix.  The cell esds are taken
into account individually in the estimation of esds in distances, angles
and torsion angles; correlations between esds in cell parameters are only
used when they are defined by crystal symmetry.  An approximate (isotropic)
treatment of cell esds is used for estimating esds involving l.s. planes.
;

loop_
_geom_bond_atom_site_label_1
_geom_bond_atom_site_label_2
_geom_bond_distance
_geom_bond_site_symmetry_2
_geom_bond_publ_flag
Cl1 C1 1.741(3) . ?
Cl2 C3 1.737(3) . ?
Cl3 C5 1.741(3) . ?
C1 C2 1.380(4) . ?
C1 C6 1.394(4) . ?
C2 C3 1.383(4) . ?
C2 H2 0.9500 . ?
C3 C4 1.385(4) . ?
C4 C5 1.384(4) . ?
C4 H4 0.9500 . ?
C5 C6 1.382(4) . ?
C6 H6 0.9500 . ?

loop_
_geom_angle_atom_site_label_1
_geom_angle_atom_site_label_2
_geom_angle_atom_site_label_3
_geom_angle
_geom_angle_site_symmetry_1
_geom_angle_site_symmetry_3
_geom_angle_publ_flag
C2 C1 C6 121.9(3) . . ?
C2 C1 Cl1 119.7(2) . . ?
C6 C1 Cl1 118.5(2) . . ?
C1 C2 C3 118.1(3) . . ?
C1 C2 H2 121.0 . . ?
C3 C2 H2 120.9 . . ?
C2 C3 C4 122.3(2) . . ?
C2 C3 Cl2 118.6(2) . . ?
C4 C3 Cl2 119.1(2) . . ?
C3 C4 C5 117.6(3) . . ?
C3 C4 H4 121.2 . . ?
C5 C4 H4 121.2 . . ?
C6 C5 C4 122.4(3) . . ?
C6 C5 Cl3 118.6(2) . . ?
C4 C5 Cl3 119.0(2) . . ?
C5 C6 C1 117.7(3) . . ?
C5 C6 H6 121.1 . . ?
C1 C6 H6 121.1 . . ?

_diffrn_measured_fraction_theta_max 0.992
_diffrn_reflns_theta_full        25.99
_diffrn_measured_fraction_theta_full 0.992
_refine_diff_density_max         0.267
_refine_diff_density_min         -0.269
_refine_diff_density_rms         0.060
