####################################################################### 
# 
# This file contains crystal structure data downloaded from the 
# Cambridge Structural Database (CSD) hosted by the Cambridge 
# Crystallographic Data Centre (CCDC).
# 
# Full information about CCDC data access policies and citation 
# guidelines are available at http://www.ccdc.cam.ac.uk/access/V1 
# 
# Audit and citation data items may have been added by the CCDC. 
# Please retain this information to preserve the provenance of 
# this file and to allow appropriate attribution of the data. 
# 
#######################################################################

data_11DCE_160K
_audit_block_doi                 10.5517/ccqtgfd
_database_code_depnum_ccdc_archive 'CCDC 679874'
loop_
_citation_id
_citation_doi
_citation_year
1 10.1021/jp075491p 2008
_audit_update_record             
;
2008-03-03 deposited with the CCDC.
2016-05-05 downloaded from the CCDC.
;

_audit_creation_method           SHELXL-97
_chemical_name_systematic        
;
1,1-dichloroethane
;
_chemical_name_common            
;
1,1-dichloroethane
;
_chemical_melting_point          176.19
_chemical_formula_moiety         'C2 H4 Cl2'
_chemical_formula_sum            'C2 H4 Cl2'
_chemical_formula_weight         98.95

loop_
_atom_type_symbol
_atom_type_description
_atom_type_scat_dispersion_real
_atom_type_scat_dispersion_imag
_atom_type_scat_source
C C 0.0033 0.0016 'International Tables Vol C Tables 4.2.6.8 and 6.1.1.4'
H H 0.0000 0.0000 'International Tables Vol C Tables 4.2.6.8 and 6.1.1.4'
Cl Cl 0.1484 0.1585 'International Tables Vol C Tables 4.2.6.8 and 6.1.1.4'


# CRYSTAL DATA


_symmetry_cell_setting           orthorhombic
_symmetry_space_group_name_H-M   'P n m a'
_symmetry_space_group_name_Hall  '-P 2ac 2n'


loop_
_symmetry_equiv_pos_as_xyz
'x, y, z'
'-x+1/2, -y, z+1/2'
'-x, y+1/2, -z'
'x+1/2, -y+1/2, -z+1/2'
'-x, -y, -z'
'x-1/2, y, -z-1/2'
'x, -y-1/2, z'
'-x-1/2, y-1/2, z-1/2'

_cell_length_a                   7.8716(16)
_cell_length_b                   9.404(2)
_cell_length_c                   5.8862(11)
_cell_angle_alpha                90.00
_cell_angle_beta                 90.00
_cell_angle_gamma                90.00
_cell_volume                     435.71(15)
_cell_formula_units_Z            4
_cell_measurement_temperature    160.0(1)
_cell_measurement_reflns_used    1714
_cell_measurement_theta_min      3.46
_cell_measurement_theta_max      29.12

_exptl_crystal_description       irregular
_exptl_crystal_colour            colourless
_exptl_crystal_size_max          0.20
_exptl_crystal_size_mid          0.20
_exptl_crystal_size_min          0.10
_exptl_crystal_density_meas      ?
_exptl_crystal_density_diffrn    1.508
_exptl_crystal_density_method    'not measured'
_exptl_crystal_F_000             200
_exptl_absorpt_coefficient_mu    1.268
_exptl_absorpt_correction_type   multi-scan
_exptl_absorpt_correction_T_min  0.7855
_exptl_absorpt_correction_T_max  0.8837
_exptl_absorpt_process_details   
;
Correction for absorption was made using XEMP (SHELXTL,
Sheldrick (1990)).
;

_exptl_special_details           
;
Data were collected at ambient pressure (100 kPa) and 160 K with
the crystal obtained by the in-situ low-temperature crystallization
technique.
;



# EXPERIMENTAL DATA



_diffrn_ambient_temperature      295(2)
_diffrn_ambient_pressure         100
_diffrn_radiation_wavelength     0.71073
_diffrn_radiation_type           MoK\a
_diffrn_radiation_source         'fine-focus sealed tube'
_diffrn_radiation_monochromator  graphite
_diffrn_measurement_device_type  'KM-4 CCD'
_diffrn_measurement_method       \w-scans
_diffrn_detector_area_resol_mean ?
_diffrn_standards_number         0
_diffrn_standards_interval_count 0
_diffrn_standards_interval_time  ?
_diffrn_standards_decay_%        0
_diffrn_reflns_number            1983
_diffrn_reflns_av_R_equivalents  0.1073
_diffrn_reflns_av_sigmaI/netI    0.0640
_diffrn_reflns_limit_h_min       -9
_diffrn_reflns_limit_h_max       6
_diffrn_reflns_limit_k_min       -9
_diffrn_reflns_limit_k_max       11
_diffrn_reflns_limit_l_min       -6
_diffrn_reflns_limit_l_max       7
_diffrn_reflns_theta_min         4.08
_diffrn_reflns_theta_max         25.24
_reflns_number_total             417
_reflns_number_gt                407
_reflns_threshold_expression     >2sigma(I)


_computing_data_collection       'CrysAlisCCD (Oxford Diffraction, 2004)'
_computing_cell_refinement       'CrysAlisRED (Oxford Diffraction, 2004)'
_computing_data_reduction        'CrysAlisRED (Oxford Diffraction, 2004)'
_computing_structure_solution    'SHELXS--97 (Sheldrick, 1997)'
_computing_structure_refinement  'SHELXL--97 (Sheldrick, 1997)'
_computing_molecular_graphics    'SHELXTL (Sheldrick, 1990)'
_computing_publication_material  'SHELXL--97 (Sheldrick, 1997)'


# REFINEMENT DATA




_refine_special_details          
;
Refinement of F^2^ against ALL reflections. The weighted R-factor wR and
goodness of fit S are based on F^2^, conventional R-factors R are based
on F, with F set to zero for negative F^2^. The threshold expression of
F^2^ > 2sigma(F^2^) is used only for calculating R-factors(gt) etc. and is
not relevant to the choice of reflections for refinement. R-factors based
on F^2^ are statistically about twice as large as those based on F, and R-
factors based on ALL data will be even larger.
;

_refine_ls_structure_factor_coef Fsqd
_refine_ls_matrix_type           full
_refine_ls_weighting_scheme      calc
_refine_ls_weighting_details     
'calc w=1/[\s^2^(Fo^2^)+(0.0438P)^2^+0.1695P] where P=(Fo^2^+2Fc^2^)/3'
_atom_sites_solution_primary     direct
_atom_sites_solution_secondary   difmap
_atom_sites_solution_hydrogens   difmap
_refine_ls_hydrogen_treatment    mixed
_refine_ls_extinction_method     SHELXL
_refine_ls_extinction_coef       0.038(10)
_refine_ls_extinction_expression Fc^*^=kFc[1+0.001xFc^2^\l^3^/sin(2\q)]^-1/4^
_refine_ls_number_reflns         417
_refine_ls_number_parameters     30
_refine_ls_number_restraints     7
_refine_ls_R_factor_all          0.0474
_refine_ls_R_factor_gt           0.0461
_refine_ls_wR_factor_ref         0.1187
_refine_ls_wR_factor_gt          0.1174
_refine_ls_goodness_of_fit_ref   1.249
_refine_ls_restrained_S_all      1.238
_refine_ls_shift/su_max          0.000
_refine_ls_shift/su_mean         0.000


# ATOMIC COORDINATES AND DISPLACEMENT PARAMETERS


loop_
_atom_site_label
_atom_site_type_symbol
_atom_site_fract_x
_atom_site_fract_y
_atom_site_fract_z
_atom_site_U_iso_or_equiv
_atom_site_adp_type
_atom_site_occupancy
_atom_site_symmetry_multiplicity
_atom_site_calc_flag
_atom_site_refinement_flags
_atom_site_disorder_assembly
_atom_site_disorder_group
Cl1 Cl 0.88669(9) 0.59571(7) 0.23426(11) 0.0456(5) Uani 1 1 d D . .
C1 C 0.9329(4) 0.7500 0.4010(5) 0.0321(8) Uani 1 2 d S . .
H11 H 1.053(5) 0.7500 0.420(6) 0.039 Uiso 1 2 d SD . .
C2 C 0.8311(5) 0.7500 0.6151(6) 0.0417(9) Uani 1 2 d SD . .
H21 H 0.716(4) 0.7500 0.572(7) 0.062 Uiso 1 2 d SD . .
H22 H 0.859(3) 0.668(2) 0.695(4) 0.062 Uiso 1 1 d D . .

loop_
_atom_site_aniso_label
_atom_site_aniso_U_11
_atom_site_aniso_U_22
_atom_site_aniso_U_33
_atom_site_aniso_U_23
_atom_site_aniso_U_13
_atom_site_aniso_U_12
Cl1 0.0584(6) 0.0370(7) 0.0416(6) -0.0105(2) -0.0045(3) 0.0059(2)
C1 0.0313(15) 0.0347(17) 0.0303(17) 0.000 -0.0024(13) 0.000
C2 0.057(2) 0.0407(19) 0.0276(18) 0.000 0.0024(17) 0.000


# MOLECULAR GEOMETRY



_geom_special_details            
;
All esds (except the esd in the dihedral angle between two l.s. planes)
are estimated using the full covariance matrix. The cell esds are taken
into account individually in the estimation of esds in distances, angles
and torsion angles; correlations between esds in cell parameters are only
used when they are defined by crystal symmetry. An approximate (isotropic)
treatment of cell esds is used for estimating esds involving l.s. planes.
;

loop_
_geom_bond_atom_site_label_1
_geom_bond_atom_site_label_2
_geom_bond_distance
_geom_bond_site_symmetry_2
_geom_bond_publ_flag
Cl1 C1 1.789(2) . y
C1 C2 1.493(5) . y
C1 H11 0.95(4) . y
C2 H21 0.94(3) . y
C2 H22 0.93(3) . y

loop_
_geom_angle_atom_site_label_1
_geom_angle_atom_site_label_2
_geom_angle_atom_site_label_3
_geom_angle
_geom_angle_site_symmetry_1
_geom_angle_site_symmetry_3
_geom_angle_publ_flag
Cl1 C1 Cl1 108.37(17) . 7_575 y
C2 C1 Cl1 110.72(14) . . y
Cl1 C1 H11 105.4(11) . . y
C1 C2 H21 107(3) . . y
C1 C2 H22 107.3(18) . . y
C2 C1 H11 116(2) . . y
H21 C2 H22 111.3(15) . . y

loop_
_geom_torsion_atom_site_label_1
_geom_torsion_atom_site_label_2
_geom_torsion_atom_site_label_3
_geom_torsion_atom_site_label_4
_geom_torsion
_geom_torsion_site_symmetry_1
_geom_torsion_site_symmetry_2
_geom_torsion_site_symmetry_3
_geom_torsion_site_symmetry_4
_geom_torsion_publ_flag
Cl1 C1 C2 H21 -60.12(14) . . . . y
Cl1 C1 C2 H22 59.3(10) . . . . y
Cl1 C1 C2 H22 -179.6(10) . . . 7_575 y
Cl1 C1 C2 H21 60.12(14) 7_575 . . . y
Cl1 C1 C2 H22 179.6(10) 7_575 . . . y
Cl1 C1 C2 H22 -59.3(10) 7_575 . . 7_575 y
H11 C1 C2 H21 180.000(4) . . . . y
H11 C1 C2 H22 -60.5(10) . . . . y
H11 C1 C2 H22 60.5(10) . . . 7_575 y

_diffrn_measured_fraction_theta_max 0.995
_diffrn_reflns_theta_full        25.24
_diffrn_measured_fraction_theta_full 0.995
_refine_diff_density_max         0.273
_refine_diff_density_min         -0.420
_refine_diff_density_rms         0.079

#
# h,k,l, Fc-squared, Fo-squared, sigma(Fo-squared) and status flag
#

loop_
_refln_index_h
_refln_index_k
_refln_index_l
_refln_F_squared_calc
_refln_F_squared_meas
_refln_F_squared_sigma
_refln_observed_status
2 0 0 294.74 292.74 40.28 o
4 0 0 4487.38 4640.60 637.15 o
6 0 0 231.59 241.02 26.83 o
8 0 0 105.31 92.64 3.18 o
2 1 0 7580.67 7408.73 457.10 o
4 1 0 134.67 142.09 10.98 o
6 1 0 233.13 242.57 14.03 o
8 1 0 23.61 20.63 2.55 o
0 2 0 37.75 35.07 2.32 o
2 2 0 4.61 6.86 0.41 o
4 2 0 257.86 221.64 13.20 o
6 2 0 12.46 11.30 0.68 o
8 2 0 104.12 102.58 2.72 o
2 3 0 3859.11 3167.58 367.97 o
4 3 0 176.99 165.54 9.90 o
6 3 0 908.77 887.39 56.61 o
8 3 0 88.33 80.19 2.82 o
0 4 0 1259.62 1342.92 108.34 o
2 4 0 47.99 39.61 2.05 o
4 4 0 977.26 927.26 36.22 o
6 4 0 93.24 84.91 6.06 o
8 4 0 167.16 166.27 10.48 o
2 5 0 327.17 307.28 13.42 o
4 5 0 0.33 1.43 0.66 o
6 5 0 3.10 3.89 0.55 o
8 5 0 0.97 2.66 1.04 o
0 6 0 4093.01 3656.26 91.80 o
2 6 0 50.56 46.21 2.09 o
4 6 0 1098.54 1053.34 119.97 o
6 6 0 69.37 62.05 9.33 o
8 6 0 39.31 39.35 3.08 o
2 7 0 1833.68 1829.28 29.03 o
4 7 0 105.86 95.79 7.72 o
6 7 0 178.21 171.66 17.31 o
0 8 0 164.00 148.30 20.36 o
2 8 0 9.99 8.38 0.95 o
4 8 0 9.91 6.41 1.27 o
6 8 0 11.97 13.53 4.45 o
2 9 0 282.23 199.84 38.07 o
4 9 0 6.50 4.13 1.78 o
0 10 0 341.18 284.03 75.64 o
2 10 0 9.05 9.45 1.69 o
4 10 0 231.91 261.78 5.46 o
2 11 0 5.93 5.24 1.63 o
1 0 1 255.78 273.25 1.36 o
2 0 1 8216.29 8646.84 308.47 o
3 0 1 2.16 2.82 0.24 o
4 0 1 745.91 810.59 45.02 o
5 0 1 10.34 8.52 0.58 o
6 0 1 795.41 865.15 80.38 o
7 0 1 6.12 5.72 1.07 o
8 0 1 128.67 123.39 2.73 o
9 0 1 17.45 13.85 1.60 o
0 1 1 3633.94 3271.89 584.13 o
1 1 1 291.59 281.98 16.81 o
2 1 1 494.12 489.07 26.20 o
3 1 1 6.24 7.24 0.35 o
4 1 1 801.95 834.01 36.14 o
5 1 1 1.42 1.00 0.24 o
6 1 1 195.65 201.25 9.58 o
7 1 1 15.59 13.70 0.71 o
8 1 1 43.11 43.85 1.97 o
9 1 1 1.84 2.44 1.10 o
1 2 1 480.06 542.76 56.95 o
2 2 1 1244.48 1124.30 61.70 o
3 2 1 20.61 16.95 0.92 o
4 2 1 17.61 17.44 0.70 o
5 2 1 3.91 4.75 0.54 o
6 2 1 161.18 157.81 8.57 o
7 2 1 5.69 5.09 0.56 o
8 2 1 1.16 2.04 0.59 o
9 2 1 6.52 5.12 1.37 o
0 3 1 8183.29 6704.24 851.08 o
1 3 1 369.58 375.61 20.86 o
2 3 1 0.97 2.03 0.19 o
3 3 1 110.38 103.95 4.28 o
4 3 1 2416.85 2240.33 104.59 o
5 3 1 0.00 1.08 0.32 o
6 3 1 54.83 50.66 2.19 o
7 3 1 0.01 1.32 0.45 o
8 3 1 199.21 195.87 2.70 o
9 3 1 2.62 1.98 0.83 o
1 4 1 317.10 327.73 15.70 o
2 4 1 2361.62 2248.24 85.91 o
3 4 1 21.78 21.35 0.74 o
4 4 1 23.44 20.61 0.94 o
5 4 1 16.33 16.60 1.45 o
6 4 1 363.74 345.34 17.90 o
7 4 1 4.72 3.90 0.56 o
8 4 1 30.49 25.83 2.73 o
0 5 1 102.02 94.90 3.56 o
1 5 1 82.12 86.16 4.25 o
2 5 1 27.76 25.68 1.12 o
3 5 1 23.35 23.24 1.15 o
4 5 1 31.64 30.17 0.90 o
5 5 1 0.62 1.43 0.44 o
6 5 1 9.03 7.83 0.65 o
7 5 1 2.04 1.59 0.65 o
8 5 1 2.35 2.35 0.83 o
1 6 1 22.18 23.77 0.90 o
2 6 1 1819.74 1743.38 52.56 o
3 6 1 0.08 1.04 0.46 o
4 6 1 159.04 145.23 5.67 o
5 6 1 1.95 1.98 0.49 o
6 6 1 307.70 285.71 11.71 o
7 6 1 3.77 2.00 0.79 o
0 7 1 1541.48 1434.23 59.72 o
1 7 1 3.91 4.48 0.45 o
2 7 1 93.39 89.77 1.76 o
3 7 1 0.45 1.34 0.45 o
4 7 1 595.52 629.15 26.54 o
5 7 1 2.19 2.72 0.66 o
6 7 1 121.85 117.74 6.03 o
7 7 1 9.38 9.02 0.93 o
1 8 1 8.28 8.13 0.71 o
2 8 1 7.14 4.88 0.76 o
3 8 1 0.14 1.14 0.63 o
4 8 1 42.94 43.02 1.59 o
5 8 1 1.05 1.17 0.64 o
6 8 1 0.17 1.90 0.70 o
0 9 1 539.99 547.21 38.65 o
1 9 1 15.55 19.78 2.88 o
2 9 1 0.12 1.28 0.51 o
3 9 1 8.13 9.41 0.89 o
4 9 1 274.65 317.15 16.00 o
5 9 1 0.09 1.43 0.87 o
1 10 1 28.26 25.89 1.24 o
2 10 1 464.28 457.93 35.65 o
3 10 1 4.13 5.11 1.09 o
4 10 1 8.68 6.90 1.29 o
0 11 1 38.75 31.06 4.53 o
1 11 1 11.92 9.75 0.89 o
0 0 2 7661.38 8019.80 202.75 o
1 0 2 495.60 483.69 34.19 o
2 0 2 84.05 93.49 1.51 o
3 0 2 11.12 9.49 0.67 o
4 0 2 2481.25 2765.11 37.81 o
5 0 2 120.00 132.53 6.55 o
6 0 2 124.92 136.63 10.17 o
7 0 2 7.56 7.74 1.25 o
8 0 2 209.24 242.70 17.31 o
9 0 2 0.78 2.23 1.11 o
1 1 2 7.20 6.46 0.30 o
2 1 2 1723.90 1859.50 83.88 o
3 1 2 269.01 268.56 9.93 o
4 1 2 43.43 47.59 2.45 o
5 1 2 0.18 0.99 0.35 o
6 1 2 249.01 243.40 14.48 o
7 1 2 27.03 27.75 1.95 o
8 1 2 22.76 21.64 1.02 o
9 1 2 4.09 3.49 0.81 o
0 2 2 1376.08 1393.36 58.46 o
1 2 2 40.08 53.62 1.87 o
2 2 2 20.33 24.49 1.20 o
3 2 2 104.85 111.69 3.68 o
4 2 2 283.07 298.30 13.56 o
5 2 2 61.33 63.57 2.52 o
6 2 2 20.95 18.20 0.95 o
7 2 2 7.34 8.30 0.68 o
8 2 2 13.96 13.46 1.17 o
1 3 2 249.76 276.49 14.99 o
2 3 2 4152.73 4290.71 239.34 o
3 3 2 26.51 27.17 1.30 o
4 3 2 175.30 176.79 7.39 o
5 3 2 124.47 156.01 13.29 o
6 3 2 544.31 571.74 30.84 o
7 3 2 19.66 17.94 0.86 o
8 3 2 56.63 57.35 3.40 o
0 4 2 2839.91 2845.16 102.40 o
1 4 2 7.49 6.55 1.07 o
2 4 2 60.66 69.91 6.35 o
3 4 2 217.18 197.06 12.44 o
4 4 2 810.85 785.28 33.92 o
5 4 2 26.27 25.82 1.32 o
6 4 2 90.17 90.17 5.13 o
7 4 2 25.08 27.83 2.37 o
8 4 2 44.25 45.36 2.18 o
1 5 2 37.21 42.11 2.10 o
2 5 2 23.53 20.12 1.11 o
3 5 2 32.82 36.45 1.69 o
4 5 2 1.95 2.34 0.46 o
5 5 2 27.29 23.45 0.78 o
6 5 2 18.32 19.98 1.15 o
7 5 2 14.15 13.51 0.94 o
8 5 2 0.11 3.22 0.93 o
0 6 2 1451.52 1341.06 103.05 o
1 6 2 43.74 44.73 1.84 o
2 6 2 17.11 15.67 1.18 o
3 6 2 0.03 1.87 0.82 o
4 6 2 723.04 793.38 25.29 o
5 6 2 37.96 40.19 1.38 o
6 6 2 37.04 33.89 1.89 o
7 6 2 1.01 2.59 0.73 o
1 7 2 17.61 17.86 0.96 o
2 7 2 835.22 851.82 62.47 o
3 7 2 63.94 70.84 3.33 o
4 7 2 50.09 47.33 2.19 o
5 7 2 3.55 4.72 1.00 o
6 7 2 185.01 193.69 11.88 o
0 8 2 0.08 1.49 0.70 o
1 8 2 20.51 19.73 0.97 o
2 8 2 1.52 1.91 0.51 o
3 8 2 0.01 1.53 1.08 o
4 8 2 0.52 1.92 0.82 o
5 8 2 20.06 24.18 2.07 o
6 8 2 3.73 3.88 0.99 o
1 9 2 8.53 9.04 0.91 o
2 9 2 419.04 418.46 17.74 o
3 9 2 6.13 4.69 0.96 o
4 9 2 12.92 15.50 2.34 o
5 9 2 9.60 8.25 1.58 o
0 10 2 506.88 512.12 75.14 o
1 10 2 4.56 6.02 0.95 o
2 10 2 12.69 10.50 1.00 o
3 10 2 35.56 34.65 3.74 o
1 0 3 75.82 68.59 2.34 o
2 0 3 3138.85 3182.74 135.19 o
3 0 3 5.07 4.11 0.57 o
4 0 3 5.52 5.66 1.11 o
5 0 3 104.92 99.57 10.12 o
6 0 3 592.26 609.39 56.87 o
7 0 3 0.07 2.29 1.11 o
8 0 3 26.40 30.06 2.04 o
0 1 3 1142.88 1104.80 64.62 o
1 1 3 0.55 1.13 0.29 o
2 1 3 33.66 34.21 1.38 o
3 1 3 34.01 35.16 1.73 o
4 1 3 485.84 487.99 29.12 o
5 1 3 0.09 1.76 0.56 o
6 1 3 0.01 1.15 0.60 o
7 1 3 25.81 28.66 2.34 o
8 1 3 61.67 59.37 4.07 o
1 2 3 70.43 60.92 3.41 o
2 2 3 411.86 403.27 16.32 o
3 2 3 24.18 20.83 1.02 o
4 2 3 133.71 138.30 6.05 o
5 2 3 2.33 3.11 0.68 o
6 2 3 43.24 42.47 1.36 o
7 2 3 0.04 1.70 0.57 o
8 2 3 14.69 14.70 1.04 o
0 3 3 3119.26 3225.96 125.49 o
1 3 3 198.41 200.94 7.13 o
2 3 3 235.33 255.81 10.73 o
3 3 3 161.76 167.92 8.54 o
4 3 3 1081.81 1154.75 74.09 o
5 3 3 6.86 5.97 0.62 o
6 3 3 199.83 191.10 8.25 o
7 3 3 12.10 12.31 1.10 o
8 3 3 69.45 72.99 2.58 o
1 4 3 201.15 201.26 4.96 o
2 4 3 1007.93 1092.63 59.79 o
3 4 3 50.71 53.80 3.14 o
4 4 3 220.60 258.08 4.86 o
5 4 3 47.80 50.51 2.27 o
6 4 3 135.27 140.41 6.91 o
7 4 3 0.05 2.07 0.75 o
0 5 3 46.13 45.52 2.44 o
1 5 3 21.92 22.17 1.08 o
2 5 3 43.96 47.51 3.21 o
3 5 3 11.35 10.19 0.84 o
4 5 3 38.50 42.14 1.76 o
5 5 3 0.33 1.08 0.47 o
6 5 3 22.45 25.19 2.20 o
7 5 3 0.06 2.69 0.90 o
1 6 3 14.85 17.75 1.46 o
2 6 3 990.55 1090.43 71.80 o
3 6 3 2.74 3.49 0.77 o
4 6 3 0.03 1.94 0.67 o
5 6 3 23.92 27.68 1.19 o
6 6 3 245.84 273.80 12.15 o
0 7 3 746.69 751.67 33.32 o
1 7 3 23.31 27.07 2.12 o
2 7 3 0.09 1.65 0.81 o
3 7 3 52.49 58.51 3.19 o
4 7 3 365.39 426.17 4.87 o
5 7 3 2.31 4.59 1.07 o
6 7 3 5.94 3.78 1.13 o
1 8 3 7.00 7.63 0.98 o
2 8 3 0.60 2.76 0.70 o
3 8 3 0.83 2.22 0.63 o
4 8 3 5.39 4.51 0.75 o
5 8 3 12.02 9.77 0.97 o
0 9 3 371.46 374.34 31.62 o
1 9 3 10.05 9.44 1.19 o
2 9 3 22.54 25.47 1.97 o
3 9 3 5.74 7.15 0.95 o
4 9 3 156.22 160.31 13.06 o
1 10 3 39.75 37.64 2.26 o
0 0 4 1122.50 1125.85 71.34 o
1 0 4 143.75 145.68 5.19 o
2 0 4 26.57 24.12 1.00 o
3 0 4 299.09 423.32 42.17 o
4 0 4 740.62 723.29 61.92 o
5 0 4 0.14 6.61 1.21 o
6 0 4 61.59 64.99 2.28 o
7 0 4 43.04 48.06 2.96 o
1 1 4 171.18 171.37 7.47 o
2 1 4 200.30 175.40 12.78 o
3 1 4 6.15 8.11 0.66 o
4 1 4 21.96 24.39 1.39 o
5 1 4 67.29 54.81 3.22 o
6 1 4 130.29 121.77 5.95 o
7 1 4 3.34 3.99 1.07 o
0 2 4 792.00 790.41 47.88 o
1 2 4 6.50 5.83 0.54 o
2 2 4 3.80 4.46 0.59 o
3 2 4 0.13 1.38 0.42 o
4 2 4 167.10 152.82 8.89 o
5 2 4 7.63 4.44 0.91 o
6 2 4 3.85 3.65 0.91 o
7 2 4 1.09 1.97 0.74 o
1 3 4 77.95 76.63 2.00 o
2 3 4 1843.45 1732.59 63.29 o
3 3 4 57.03 51.62 3.42 o
4 3 4 49.17 54.11 3.37 o
5 3 4 45.80 55.35 1.93 o
6 3 4 201.51 214.90 11.00 o
7 3 4 4.19 3.07 1.07 o
0 4 4 1281.82 1367.43 61.54 o
1 4 4 86.90 87.43 2.22 o
2 4 4 15.72 15.45 0.80 o
3 4 4 61.82 61.40 3.10 o
4 4 4 359.75 400.46 13.53 o
5 4 4 17.53 17.98 1.31 o
6 4 4 24.26 25.53 1.48 o
7 4 4 20.50 23.13 1.59 o
1 5 4 0.06 1.77 0.54 o
2 5 4 0.02 1.52 0.55 o
3 5 4 8.16 8.23 0.86 o
4 5 4 0.00 1.16 0.50 o
5 5 4 0.05 5.94 2.13 o
6 5 4 20.41 21.78 1.26 o
0 6 4 403.11 374.16 4.27 o
1 6 4 25.44 24.56 1.00 o
2 6 4 7.70 7.74 0.95 o
3 6 4 68.59 78.65 4.78 o
4 6 4 291.24 315.85 15.79 o
5 6 4 0.15 1.96 0.68 o
1 7 4 113.16 108.79 1.89 o
2 7 4 221.11 222.94 15.46 o
3 7 4 10.26 9.74 0.94 o
4 7 4 20.96 22.01 1.41 o
5 7 4 60.41 72.79 4.52 o
0 8 4 26.79 27.14 1.83 o
1 8 4 13.57 13.35 1.00 o
2 8 4 0.36 2.30 0.71 o
3 8 4 36.04 38.29 1.56 o
1 9 4 0.68 1.96 0.74 o
1 0 5 373.12 315.82 71.57 o
2 0 5 926.18 715.54 244.59 o
3 0 5 63.69 62.29 8.01 o
4 0 5 16.03 25.79 4.21 o
5 0 5 93.99 79.84 8.80 o
6 0 5 172.50 141.65 13.78 o
0 1 5 384.41 405.43 3.33 o
1 1 5 140.06 132.57 11.45 o
2 1 5 1.85 2.41 0.73 o
3 1 5 120.22 117.64 6.35 o
4 1 5 155.20 145.00 8.99 o
5 1 5 0.35 1.44 0.74 o
6 1 5 4.53 3.64 1.06 o
1 2 5 11.29 7.75 0.65 o
2 2 5 80.31 73.37 3.23 o
3 2 5 0.28 1.98 0.58 o
4 2 5 9.65 10.61 1.11 o
5 2 5 3.45 3.25 0.74 o
6 2 5 24.34 21.15 2.14 o
0 3 5 671.42 684.05 30.80 o
1 3 5 12.70 12.79 0.74 o
2 3 5 14.73 14.97 1.25 o
3 3 5 51.71 54.08 2.83 o
4 3 5 326.07 345.45 45.00 o
5 3 5 7.65 9.05 1.14 o
6 3 5 28.71 32.40 2.26 o
1 4 5 20.34 20.42 0.82 o
2 4 5 220.13 203.94 8.15 o
3 4 5 9.12 9.68 0.81 o
4 4 5 23.10 23.72 1.96 o
5 4 5 50.14 58.25 4.50 o
0 5 5 54.50 51.80 1.74 o
1 5 5 7.58 6.62 0.66 o
2 5 5 0.16 0.96 0.63 o
3 5 5 0.73 2.58 0.69 o
4 5 5 22.41 23.21 1.97 o
5 5 5 0.76 1.37 0.83 o
1 6 5 113.04 111.44 2.09 o
2 6 5 388.61 407.49 22.18 o
3 6 5 21.95 21.26 1.36 o
4 6 5 6.04 5.76 0.87 o
0 7 5 274.58 243.30 7.14 o
1 7 5 105.20 106.94 5.59 o
2 7 5 2.71 2.75 0.83 o
3 7 5 108.09 127.58 14.54 o
1 0 6 43.55 39.49 6.64 o
2 0 6 11.51 21.69 2.38 o
3 0 6 147.70 173.19 10.18 o
4 0 6 221.31 225.73 4.04 o
1 1 6 45.91 48.14 1.68 o
2 1 6 171.52 165.32 3.05 o
3 1 6 0.05 3.92 1.23 o
4 1 6 10.86 11.72 1.32 o
0 2 6 15.87 11.93 2.37 o
1 2 6 15.86 14.67 1.23 o
2 2 6 0.12 0.71 0.75 o
3 2 6 0.46 0.83 0.74 o
4 2 6 26.80 28.59 1.65 o
1 3 6 80.77 76.30 6.15 o
2 3 6 210.01 189.31 17.62 o
3 3 6 58.65 57.04 5.25 o
4 3 6 3.16 3.74 1.03 o
0 4 6 62.09 62.66 1.85 o
1 4 6 75.04 61.29 2.05 o
2 4 6 0.20 2.94 0.68 o
3 4 6 44.07 45.40 2.44 o
1 5 6 2.37 2.81 0.81 o
2 5 6 44.02 51.36 9.44 o
0 1 7 45.66 35.12 3.07 o
