####################################################################### 
# 
# This file contains crystal structure data downloaded from the 
# Cambridge Structural Database (CSD) hosted by the Cambridge 
# Crystallographic Data Centre (CCDC).
# 
# Full information about CCDC data access policies and citation 
# guidelines are available at http://www.ccdc.cam.ac.uk/access/V1 
# 
# Audit and citation data items may have been added by the CCDC. 
# Please retain this information to preserve the provenance of 
# this file and to allow appropriate attribution of the data. 
# 
#######################################################################

data_11DCE_151GPa
_audit_block_doi                 10.5517/ccqtghg
_database_code_depnum_ccdc_archive 'CCDC 679876'
loop_
_citation_id
_citation_doi
_citation_year
1 10.1021/jp075491p 2008
_audit_update_record             
;
2008-03-03 deposited with the CCDC.
2016-05-05 downloaded from the CCDC.
;


# CHEMICAL DATA


_audit_creation_method           SHELXL-97
_chemical_name_systematic        
;
1,1-dichloroethane
;
_chemical_name_common            
;
1,1-dichloroethane
;
_chemical_melting_point          176.19
_chemical_formula_moiety         'C2 H4 Cl2'
_chemical_formula_sum            'C2 H4 Cl2'
_chemical_formula_weight         98.95

loop_
_atom_type_symbol
_atom_type_description
_atom_type_scat_dispersion_real
_atom_type_scat_dispersion_imag
_atom_type_scat_source
C C 0.0033 0.0016 'International Tables Vol C Tables 4.2.6.8 and 6.1.1.4'
H H 0.0000 0.0000 'International Tables Vol C Tables 4.2.6.8 and 6.1.1.4'
Cl Cl 0.1484 0.1585 'International Tables Vol C Tables 4.2.6.8 and 6.1.1.4'


# CRYSTAL DATA


_symmetry_cell_setting           orthorhombic
_symmetry_space_group_name_H-M   'P n m a'
_symmetry_space_group_name_Hall  '-P 2ac 2n'



loop_
_symmetry_equiv_pos_as_xyz
'x, y, z'
'-x+1/2, -y, z+1/2'
'-x, y+1/2, -z'
'x+1/2, -y+1/2, -z+1/2'
'-x, -y, -z'
'x-1/2, y, -z-1/2'
'x, -y-1/2, z'
'-x-1/2, y-1/2, z-1/2'

_cell_length_a                   7.3833(10)
_cell_length_b                   9.0641(11)
_cell_length_c                   5.6461(18)
_cell_angle_alpha                90.00
_cell_angle_beta                 90.00
_cell_angle_gamma                90.00
_cell_volume                     377.86(14)
_cell_formula_units_Z            4
_cell_measurement_temperature    295(2)
_cell_measurement_reflns_used    2223
_cell_measurement_theta_min      2.76
_cell_measurement_theta_max      29.33

_exptl_crystal_description       cylinder
_exptl_crystal_colour            colourless
_exptl_crystal_size_max          0.39
_exptl_crystal_size_mid          0.38
_exptl_crystal_size_min          0.23
_exptl_crystal_density_meas      ?
_exptl_crystal_density_diffrn    1.739
_exptl_crystal_density_method    'not measured'
_exptl_crystal_F_000             200
_exptl_absorpt_coefficient_mu    1.462
_exptl_absorpt_correction_type   numerical
_exptl_absorpt_correction_T_min  0.67
_exptl_absorpt_correction_T_max  0.71
_exptl_absorpt_process_details   
;
Correction for absorption of the diamond-anvil cell and the sample
were made using program REDSHABS (Katrusiak, A. (2003) REDSHABS. Adam
Mickiewicz University Pozna\'n; Katrusiak, A. (2004) Z. Kristallogr.
219, 461-467).
;


# EXPERIMENTAL DATA



_exptl_special_details           
;
Data were collected at room temperature and pressure of 1.51(5) GPa
(1510000 kPa) with the crystal obtained by the in-situ high-pressure
crystallization technique.
Pressure was determined by monitoring the shift of the ruby
R1-fluorescence line.

;



_diffrn_ambient_temperature      295(2)
_diffrn_ambient_environment      'diamond-anvil cell'
_diffrn_ambient_pressure         1510000
_diffrn_radiation_type           MoK\a
_diffrn_radiation_source         'fine-focus sealed tube'
_diffrn_radiation_monochromator  graphite
_diffrn_measurement_device_type  'KM-4 CCD'
_diffrn_measurement_method       '\f- and \w-scans'
_diffrn_detector_area_resol_mean ?
_diffrn_standards_number         0
_diffrn_standards_interval_count 0
_diffrn_standards_interval_time  ?
_diffrn_standards_decay_%        0
_diffrn_reflns_number            2383
_diffrn_reflns_av_R_equivalents  0.0808
_diffrn_reflns_av_sigmaI/netI    0.0245
_diffrn_reflns_limit_h_min       -8
_diffrn_reflns_limit_h_max       8
_diffrn_reflns_limit_k_min       -10
_diffrn_reflns_limit_k_max       10
_diffrn_reflns_limit_l_min       -4
_diffrn_reflns_limit_l_max       4
_diffrn_reflns_theta_min         4.50
_diffrn_reflns_theta_max         25.24
_reflns_number_total             253
_reflns_number_gt                244
_reflns_threshold_expression     >2sigma(I)


_computing_data_collection       'CrysAlisCCD (Oxford Diffraction, 2004)'
_computing_cell_refinement       'CrysAlisRED (Oxford Diffraction, 2004)'
_computing_data_reduction        
'CrysAlisRED (Oxford Diffraction, 2004); REDSHABS (Katrusiak, A. 2003)'
_computing_structure_solution    'SHELXS--97 (Sheldrick, 1997)'
_computing_structure_refinement  'SHELXL--97 (Sheldrick, 1997)'
_computing_molecular_graphics    'SHELXTL (Sheldrick, 1990)'
_computing_publication_material  'SHELXL--97 (Sheldrick, 1997)'


# REFINEMENT DATA


_refine_special_details          
;
Refinement of F^2^ against ALL reflections. The weighted R-factor wR and
goodness of fit S are based on F^2^, conventional R-factors R are based
on F, with F set to zero for negative F^2^. The threshold expression of
F^2^ > 2sigma(F^2^) is used only for calculating R-factors(gt) etc. and is
not relevant to the choice of reflections for refinement. R-factors based
on F^2^ are statistically about twice as large as those based on F, and R-
factors based on ALL data will be even larger.

The DAC imposes severe restrictions on which reflections can be collected,
resulting in a low data:parameter ratio.

;

_refine_ls_structure_factor_coef Fsqd
_refine_ls_matrix_type           full
_refine_ls_weighting_scheme      calc
_refine_ls_weighting_details     
'calc w=1/[\s^2^(Fo^2^)+(0.0399P)^2^+0.5023P] where P=(Fo^2^+2Fc^2^)/3'
_atom_sites_solution_primary     direct
_atom_sites_solution_secondary   difmap
_atom_sites_solution_hydrogens   difmap
_refine_ls_hydrogen_treatment    mixed
_refine_ls_extinction_method     none
_refine_ls_extinction_coef       ?
_refine_ls_number_reflns         253
_refine_ls_number_parameters     29
_refine_ls_number_restraints     7
_refine_ls_R_factor_all          0.0397
_refine_ls_R_factor_gt           0.0384
_refine_ls_wR_factor_ref         0.0927
_refine_ls_wR_factor_gt          0.0917
_refine_ls_goodness_of_fit_ref   1.106
_refine_ls_restrained_S_all      1.089
_refine_ls_shift/su_max          0.000
_refine_ls_shift/su_mean         0.000


# ATOMIC COORDINATES AND DISPLACEMENT PARAMETERS




loop_
_atom_site_label
_atom_site_type_symbol
_atom_site_fract_x
_atom_site_fract_y
_atom_site_fract_z
_atom_site_U_iso_or_equiv
_atom_site_adp_type
_atom_site_occupancy
_atom_site_symmetry_multiplicity
_atom_site_calc_flag
_atom_site_refinement_flags
_atom_site_disorder_assembly
_atom_site_disorder_group
Cl1 Cl 0.89193(11) 0.59082(8) 0.23673(18) 0.0383(5) Uani 1 1 d D . .
C1 C 0.9367(6) 0.7500 0.4125(10) 0.0277(13) Uani 1 2 d S . .
H11 H 1.067(6) 0.7500 0.435(11) 0.033 Uiso 1 2 d SD . .
C2 C 0.8219(6) 0.7500 0.6320(12) 0.0349(14) Uani 1 2 d SD . .
H21 H 0.699(5) 0.7500 0.569(11) 0.052 Uiso 1 2 d SD . .
H22 H 0.852(4) 0.660(3) 0.717(6) 0.052 Uiso 1 1 d D . .

loop_
_atom_site_aniso_label
_atom_site_aniso_U_11
_atom_site_aniso_U_22
_atom_site_aniso_U_33
_atom_site_aniso_U_23
_atom_site_aniso_U_13
_atom_site_aniso_U_12
Cl1 0.0478(6) 0.0299(6) 0.0373(12) -0.0082(3) -0.0030(3) 0.0046(3)
C1 0.031(2) 0.0288(19) 0.023(5) 0.000 -0.0037(18) 0.000
C2 0.046(3) 0.035(2) 0.024(5) 0.000 0.003(2) 0.000


# MOLECULAR GEOMETRY





_geom_special_details            
;
All esds (except the esd in the dihedral angle between two l.s. planes)
are estimated using the full covariance matrix. The cell esds are taken
into account individually in the estimation of esds in distances, angles
and torsion angles; correlations between esds in cell parameters are only
used when they are defined by crystal symmetry. An approximate (isotropic)
treatment of cell esds is used for estimating esds involving l.s. planes.
;

loop_
_geom_bond_atom_site_label_1
_geom_bond_atom_site_label_2
_geom_bond_distance
_geom_bond_site_symmetry_2
_geom_bond_publ_flag
Cl1 C1 1.782(3) . y
C1 C2 1.501(8) . y
C1 H11 0.97(4) . y
C2 H21 0.97(3) . y
C2 H22 0.97(3) . y

loop_
_geom_angle_atom_site_label_1
_geom_angle_atom_site_label_2
_geom_angle_atom_site_label_3
_geom_angle
_geom_angle_site_symmetry_1
_geom_angle_site_symmetry_3
_geom_angle_publ_flag
Cl1 C1 Cl1 108.1(3) . 7_575 y
C2 C1 Cl1 110.8(2) . . y
Cl1 C1 H11 104.8(19) . . y
C1 C2 H21 103(4) . . y
C1 C2 H22 106(2) . . y
C2 C1 H11 117(4) . . y
H21 C2 H22 113.3(18) . . y

loop_
_geom_torsion_atom_site_label_1
_geom_torsion_atom_site_label_2
_geom_torsion_atom_site_label_3
_geom_torsion_atom_site_label_4
_geom_torsion
_geom_torsion_site_symmetry_1
_geom_torsion_site_symmetry_2
_geom_torsion_site_symmetry_3
_geom_torsion_site_symmetry_4
_geom_torsion_publ_flag
Cl1 C1 C2 H21 -60.0(2) . . . . y
Cl1 C1 C2 H22 59.3(11) . . . . y
Cl1 C1 C2 H22 -179.3(11) . . . 7_575 y
Cl1 C1 C2 H21 60.0(2) 7_575 . . . y
Cl1 C1 C2 H22 179.3(11) 7_575 . . . y
Cl1 C1 C2 H22 -59.3(11) 7_575 . . 7_575 y
H11 C1 C2 H21 180.000(7) . . . . y
H11 C1 C2 H22 -60.7(11) . . . . y
H11 C1 C2 H22 60.7(11) . . . 7_575 y

_diffrn_measured_fraction_theta_max 0.693
_diffrn_reflns_theta_full        25.24
_diffrn_measured_fraction_theta_full 0.693
_refine_diff_density_max         0.271
_refine_diff_density_min         -0.251
_refine_diff_density_rms         0.059

#
# h,k,l, Fc-squared, Fo-squared, sigma(Fo-squared) and status flag
#


loop_
_refln_index_h
_refln_index_k
_refln_index_l
_refln_F_squared_calc
_refln_F_squared_meas
_refln_F_squared_sigma
_refln_observed_status
2 0 0 491.19 598.31 34.90 o
4 0 0 3703.90 3500.10 10.81 o
4 1 0 195.94 221.98 8.54 o
0 2 0 1.89 4.93 0.15 o
2 2 0 44.83 53.22 1.26 o
4 2 0 402.15 390.68 4.12 o
6 2 0 58.37 52.36 2.09 o
2 3 0 4162.25 3895.42 3.03 o
4 3 0 434.18 459.93 8.96 o
6 3 0 894.60 881.12 20.44 o
0 4 0 847.76 896.51 27.16 o
2 4 0 88.67 80.55 1.30 o
4 4 0 748.34 707.86 14.57 o
6 4 0 153.51 153.32 3.44 o
2 5 0 655.13 646.54 39.38 o
4 5 0 16.93 15.47 0.56 o
6 5 0 13.25 14.38 1.71 o
0 6 0 4713.87 4840.47 34.20 o
2 6 0 120.46 117.47 2.62 o
4 6 0 1151.39 1238.38 20.70 o
6 6 0 187.38 201.33 4.36 o
2 7 0 1450.79 1489.03 24.80 o
4 7 0 155.87 161.49 2.14 o
6 7 0 80.82 76.58 2.23 o
2 8 0 1.22 2.19 0.94 o
4 8 0 16.48 16.59 0.97 o
6 8 0 0.24 1.30 0.56 o
2 9 0 509.15 482.28 14.50 o
4 9 0 56.79 50.78 1.38 o
2 10 0 22.18 21.30 1.09 o
1 0 1 243.03 265.02 3.17 o
3 0 1 0.11 0.33 0.11 o
4 0 1 1206.41 1220.75 28.00 o
5 0 1 12.96 10.54 0.46 o
6 0 1 695.55 714.53 10.90 o
7 0 1 7.60 4.40 1.15 o
1 1 1 255.87 244.62 5.16 o
2 1 1 662.96 663.22 16.44 o
3 1 1 2.86 2.56 0.23 o
4 1 1 664.17 634.61 12.07 o
5 1 1 4.15 8.13 1.50 o
6 1 1 266.22 290.23 4.16 o
7 1 1 19.83 18.33 1.42 o
8 1 1 35.21 37.58 2.46 o
1 2 1 430.85 389.37 11.36 o
2 2 1 1590.25 1643.43 29.04 o
3 2 1 6.97 5.25 0.26 o
4 2 1 0.16 0.55 0.12 o
5 2 1 1.36 0.75 0.16 o
6 2 1 151.88 131.39 5.53 o
7 2 1 10.10 10.16 1.34 o
8 2 1 18.29 11.26 1.57 o
1 3 1 295.13 283.68 8.57 o
2 3 1 35.12 34.93 0.69 o
3 3 1 80.83 80.40 2.15 o
4 3 1 2221.33 2284.30 30.37 o
5 3 1 2.52 1.41 0.21 o
6 3 1 192.18 188.17 5.71 o
7 3 1 1.03 1.45 1.08 o
8 3 1 127.88 145.97 3.56 o
1 4 1 261.16 239.34 12.33 o
2 4 1 1811.84 1899.35 30.97 o
3 4 1 7.64 9.01 0.25 o
4 4 1 54.75 49.45 1.33 o
5 4 1 7.53 4.13 1.03 o
6 4 1 213.36 222.72 3.90 o
7 4 1 9.38 7.59 1.05 o
8 4 1 60.63 53.88 2.54 o
0 5 1 353.61 308.17 6.66 o
1 5 1 62.32 68.15 1.31 o
2 5 1 64.95 63.17 1.13 o
3 5 1 12.58 12.10 0.67 o
4 5 1 132.66 118.67 9.37 o
5 5 1 3.09 2.18 0.35 o
6 5 1 37.14 36.39 1.65 o
7 5 1 5.42 4.28 1.53 o
1 6 1 19.30 19.30 0.74 o
2 6 1 2098.40 1947.31 42.70 o
3 6 1 0.03 0.82 0.20 o
4 6 1 350.01 363.60 6.69 o
5 6 1 4.60 5.33 0.67 o
6 6 1 330.32 347.83 6.86 o
7 6 1 4.52 2.81 1.13 o
0 7 1 1164.87 1106.85 30.02 o
1 7 1 5.73 5.29 0.55 o
2 7 1 136.42 133.29 4.69 o
3 7 1 0.33 0.56 0.19 o
4 7 1 427.95 438.02 4.35 o
5 7 1 2.85 3.04 0.45 o
6 7 1 170.53 187.79 4.33 o
1 8 1 14.01 11.74 0.97 o
2 8 1 37.60 32.25 3.77 o
3 8 1 0.19 2.05 0.65 o
4 8 1 17.51 16.42 0.71 o
5 8 1 0.80 0.30 0.42 o
0 9 1 910.74 920.83 42.79 o
1 9 1 18.83 15.07 1.28 o
2 9 1 5.41 3.19 0.66 o
3 9 1 10.96 9.59 0.75 o
4 9 1 401.65 433.26 10.02 o
1 10 1 30.08 28.07 1.36 o
2 10 1 417.80 423.02 9.26 o
3 10 1 2.24 2.03 0.68 o
2 0 2 124.61 139.66 4.56 o
3 0 2 1.24 3.67 1.31 o
4 0 2 2269.50 2250.83 45.18 o
5 0 2 72.58 75.59 1.24 o
6 0 2 243.75 245.80 3.40 o
7 0 2 4.88 5.39 1.12 o
8 0 2 153.31 154.60 6.64 o
2 1 2 1633.80 1798.92 44.36 o
3 1 2 199.95 193.03 4.08 o
4 1 2 51.53 48.02 1.70 o
5 1 2 2.59 2.63 0.25 o
6 1 2 199.43 182.49 7.17 o
7 1 2 8.47 7.31 0.54 o
8 1 2 40.84 34.58 1.44 o
1 2 2 42.18 59.40 2.47 o
2 2 2 90.28 94.68 3.09 o
3 2 2 119.11 120.88 3.48 o
4 2 2 333.86 316.91 10.54 o
5 2 2 50.18 50.76 0.84 o
6 2 2 76.34 77.30 1.72 o
7 2 2 7.03 6.92 0.48 o
8 2 2 13.21 9.31 0.80 o
1 3 2 214.26 229.13 7.83 o
2 3 2 4046.36 3766.03 136.88 o
3 3 2 35.54 31.08 0.55 o
4 3 2 445.60 437.91 8.24 o
5 3 2 117.97 130.69 2.36 o
6 3 2 459.61 477.79 10.80 o
7 3 2 12.87 11.18 0.87 o
8 3 2 130.80 144.55 2.45 o
0 4 2 2278.94 2354.82 86.02 o
1 4 2 0.17 0.52 0.12 o
2 4 2 122.54 111.32 3.55 o
3 4 2 182.20 189.44 4.24 o
4 4 2 577.18 562.04 15.36 o
5 4 2 30.24 25.90 1.11 o
6 4 2 156.76 153.06 2.51 o
7 4 2 17.70 12.90 3.15 o
1 5 2 19.80 17.74 0.50 o
2 5 2 157.05 148.87 3.38 o
3 5 2 41.99 35.55 0.79 o
4 5 2 0.27 0.75 0.25 o
5 5 2 19.98 18.88 1.45 o
6 5 2 54.52 64.73 3.67 o
7 5 2 6.66 6.08 1.46 o
0 6 2 1798.18 1749.59 45.72 o
1 6 2 51.48 51.30 3.10 o
2 6 2 43.88 37.75 0.97 o
3 6 2 0.01 0.65 0.25 o
4 6 2 829.25 817.57 27.47 o
5 6 2 27.87 25.97 1.05 o
6 6 2 107.92 92.09 20.90 o
1 7 2 11.53 13.27 0.61 o
2 7 2 663.48 642.24 13.92 o
3 7 2 52.57 54.68 1.96 o
4 7 2 67.40 59.63 2.34 o
5 7 2 1.35 0.66 0.62 o
6 7 2 122.50 114.48 6.04 o
0 8 2 58.71 66.98 3.10 o
1 8 2 13.27 13.01 0.77 o
2 8 2 1.38 2.85 0.49 o
3 8 2 2.57 2.04 0.47 o
4 8 2 20.80 12.71 2.56 o
1 9 2 16.53 14.41 0.76 o
2 9 2 629.98 687.72 8.05 o
3 9 2 6.12 4.36 0.69 o
4 9 2 74.19 70.11 6.23 o
0 10 2 453.26 483.95 15.02 o
1 10 2 2.89 2.02 0.50 o
2 10 2 30.73 21.63 2.15 o
4 0 3 75.73 89.72 1.55 o
5 0 3 126.10 128.26 3.46 o
6 0 3 502.64 521.99 7.27 o
7 0 3 1.09 1.19 0.61 o
3 1 3 49.67 56.07 3.35 o
4 1 3 378.82 385.87 5.51 o
5 1 3 2.15 0.79 0.23 o
6 1 3 12.24 10.33 1.03 o
7 1 3 27.43 28.81 0.84 o
3 2 3 38.81 37.42 0.93 o
4 2 3 188.24 184.14 4.02 o
5 2 3 0.09 0.81 0.24 o
6 2 3 51.88 51.37 1.40 o
7 2 3 0.04 1.00 0.34 o
2 3 3 348.98 400.95 8.80 o
3 3 3 94.81 92.78 2.47 o
4 3 3 1091.79 1089.93 26.28 o
5 3 3 4.79 3.91 0.53 o
6 3 3 323.17 350.60 5.25 o
7 3 3 5.31 4.86 0.56 o
1 4 3 124.73 130.93 7.51 o
2 4 3 858.11 859.52 37.02 o
3 4 3 46.59 46.99 1.42 o
4 4 3 278.66 294.47 5.84 o
5 4 3 15.83 16.04 1.10 o
6 4 3 82.66 67.60 3.74 o
7 4 3 0.51 0.97 0.46 o
0 5 3 143.36 169.66 10.49 o
1 5 3 16.99 13.09 0.92 o
2 5 3 23.77 23.09 2.90 o
3 5 3 0.06 0.77 0.31 o
4 5 3 96.63 97.12 2.63 o
5 5 3 1.09 1.17 0.49 o
6 5 3 2.06 1.41 0.67 o
1 6 3 23.26 28.41 1.12 o
2 6 3 1116.20 1150.19 29.25 o
3 6 3 0.00 1.85 0.43 o
4 6 3 23.33 14.96 1.46 o
5 6 3 44.33 48.68 2.44 o
6 6 3 249.12 271.67 7.27 o
0 7 3 548.55 605.53 37.23 o
1 7 3 8.49 9.00 0.74 o
2 7 3 0.82 0.00 1.04 o
3 7 3 57.06 57.78 2.56 o
4 7 3 259.21 253.98 8.20 o
5 7 3 0.05 0.95 0.54 o
1 8 3 1.41 1.25 0.37 o
2 8 3 37.00 39.40 1.44 o
3 8 3 1.24 1.99 0.88 o
4 8 3 18.40 18.44 1.48 o
0 9 3 615.19 665.56 28.86 o
1 9 3 20.68 21.14 1.12 o
2 9 3 52.61 51.32 1.81 o
3 9 3 8.61 4.96 1.81 o
6 0 4 161.91 156.90 3.30 o
7 0 4 18.88 20.67 1.59 o
5 1 4 41.12 24.63 1.48 o
6 1 4 128.27 126.13 8.43 o
7 1 4 7.30 4.47 0.71 o
5 2 4 5.45 4.87 1.11 o
6 2 4 11.12 9.43 1.23 o
4 3 4 100.48 99.79 5.00 o
5 3 4 46.74 52.48 1.70 o
6 3 4 158.74 165.74 6.18 o
3 4 4 30.84 19.93 4.13 o
4 4 4 247.93 232.83 13.70 o
5 4 4 7.45 5.37 0.78 o
6 4 4 34.69 33.83 1.57 o
3 5 4 0.61 2.05 1.17 o
4 5 4 9.95 6.91 0.86 o
5 5 4 0.25 1.55 0.60 o
2 6 4 36.64 28.98 4.43 o
3 6 4 90.04 96.43 3.95 o
4 6 4 364.27 401.49 18.66 o
5 6 4 1.09 1.02 0.68 o
2 7 4 179.01 159.55 5.46 o
3 7 4 7.52 5.04 0.83 o
4 7 4 49.57 45.90 1.84 o
1 8 4 11.10 10.10 2.13 o
2 8 4 0.04 1.13 0.76 o








