
#######################################################################
#
#                 Cambridge Crystallographic Data Centre
#                                CCDC 
#
#######################################################################
#
# If this CIF has been generated from an entry in the Cambridge 
# Structural Database, then it will include bibliographic, chemical, 
# crystal, experimental, refinement or atomic coordinate data resulting 
# from the CCDC's data processing and validation procedures.
#
#######################################################################

data_CSD_CIF_MATCMN01
_audit_creation_date 1976-07-14
_audit_creation_method CSD-ConQuest-V1
_database_code_CSD MATCMN01
_chemical_formula_sum 'C2 H12 Cl4 Mn1 N2'
_chemical_formula_moiety
;
(C1 H6 N1 1+)2n,n(Cl4 Mn1 2-)
;
_journal_coden_Cambridge 199
_journal_volume 31
_journal_year 1975
_journal_page_first 455
_journal_name_full 'Phys.Status Solidi B '
loop_
_publ_author_name
"G.Heger"
"D.Mullen"
"K.Knorr"
_chemical_name_systematic
;
catena-(bis(Methylammonium) bis(\m~2~-chloro)-dichloro-manganese(ii))
;
_cell_volume   1018.954
_exptl_special_details
;
orthorhombic beta polymorph

;
_diffrn_ambient_temperature ?
_diffrn_radiation_probe 'neutron radiation'
_diffrn_special_details
;
The study was carried out at room temperature,in the range 283-303K

;
#These two values have been output from a single CSD field.
_refine_ls_R_factor_gt 0.13
_refine_ls_wR_factor_gt 0.13
_symmetry_cell_setting orthorhombic
_symmetry_space_group_name_H-M 'A b m a'
_symmetry_Int_Tables_number 64
loop_
_symmetry_equiv_pos_site_id
_symmetry_equiv_pos_as_xyz
1 x,y,z
2 x,1/2+y,1/2+z
3 -x,y,-z
4 -x,1/2+y,1/2-z
5 1/2+x,y,1/2-z
6 1/2+x,1/2+y,-z
7 1/2-x,y,1/2+z
8 1/2-x,1/2+y,z
9 -x,-y,-z
10 -x,-1/2-y,-1/2-z
11 x,-y,z
12 x,-1/2-y,-1/2+z
13 -1/2-x,-y,-1/2+z
14 -1/2-x,-1/2-y,z
15 -1/2+x,-y,-1/2-z
16 -1/2+x,-1/2-y,-z
_cell_length_a 7.276(3)
_cell_length_b 7.215(3)
_cell_length_c 19.41(1)
_cell_angle_alpha 90
_cell_angle_beta 90
_cell_angle_gamma 90
_cell_formula_units_Z 4
loop_
_atom_type_symbol
_atom_type_radius_bond
C 0.68
H 0.23
Cl 0.99
Mn 1.45
N 0.68
loop_
_atom_site_label
_atom_site_type_symbol
_atom_site_fract_x
_atom_site_fract_y
_atom_site_fract_z
Cl1 Cl 0.25000 0.25000 -0.01250
Cl2 Cl 0.03800 0.00000 0.12850
C1 C 0.05900 0.00000 0.31400
H1 H 0.17100 0.00000 0.30700
H2 H -0.01100 0.07500 0.27300
H3 H -0.16100 0.00000 0.38800
H4 H 0.00700 0.08500 0.41800
Mn1 Mn 0.00000 0.00000 0.00000
N1 N -0.02400 0.00000 0.38900
H2J H -0.01100 -0.07500 0.27300
H4J H 0.00700 -0.08500 0.41800
Cl1B Cl -0.25000 0.25000 0.01250
Cl2B Cl -0.03800 0.00000 -0.12850
Mn1E Mn 0.50000 0.50000 0.00000
Cl1E Cl -0.25000 -0.25000 0.01250
Cl1G Cl 0.25000 -0.25000 -0.01250
Mn1E* Mn -0.50000 0.50000 0.00000
#END

data_CSD_CIF_MATCMN02
_audit_creation_date 1979-02-06
_audit_creation_method CSD-ConQuest-V1
_database_code_CSD MATCMN02
_chemical_formula_sum 'C2 H12 Cl4 Mn1 N2'
_chemical_formula_moiety
;
(C1 H6 N1 1+)2n,n(Cl4 Mn1 2-)
;
_journal_coden_Cambridge 208
_journal_volume 21
_journal_year 1977
_journal_page_first 57
_journal_name_full 'J.Solid State Chem. '
loop_
_publ_author_name
"W.Depmeier"
"J.Felsche"
"G.Wildermuth"
_chemical_name_systematic
;
catena-(bis(Methylammonium) bis(\m~2~-chloro)-dichloro-manganese(ii))
;
_cell_volume    514.043
_exptl_special_details
;
alpha polymorph
phase transitions alpha to beta to gamma to delta at 398,257,92K
;
_diffrn_ambient_temperature 404
_symmetry_cell_setting tetragonal
_symmetry_space_group_name_H-M 'I 4/m m m'
_symmetry_Int_Tables_number 139
_cell_length_a 5.133(4)
_cell_length_b 5.133(4)
_cell_length_c 19.51(1)
_cell_angle_alpha 90
_cell_angle_beta 90
_cell_angle_gamma 90
_cell_formula_units_Z 2
#END

data_CSD_CIF_MATCMN03
_audit_creation_date 1979-02-06
_audit_creation_method CSD-ConQuest-V1
_database_code_CSD MATCMN03
_chemical_formula_sum 'C2 H12 Cl4 Mn1 N2'
_chemical_formula_moiety
;
(C1 H6 N1 1+)2n,n(Cl4 Mn1 2-)
;
_journal_coden_Cambridge 208
_journal_volume 21
_journal_year 1977
_journal_page_first 57
_journal_name_full 'J.Solid State Chem. '
loop_
_publ_author_name
"W.Depmeier"
"J.Felsche"
"G.Wildermuth"
_chemical_name_systematic
;
catena-(bis(Methylammonium) bis(\m~2~-chloro)-dichloro-manganese(ii))
;
_cell_volume    996.950
_exptl_special_details
;
delta polymorph

;
_diffrn_ambient_temperature ?
_diffrn_special_details
;
The study was carried out at room temperature,in the range 283-303K

;
_symmetry_cell_setting monoclinic
_symmetry_space_group_name_H-M 'P 21/a'
_symmetry_Int_Tables_number 14
_cell_length_a 7.13
_cell_length_b 7.25
_cell_length_c 19.3
_cell_angle_alpha 90
_cell_angle_beta 92.17
_cell_angle_gamma 90
_cell_formula_units_Z 4
#END

data_CSD_CIF_MATCMN04
_audit_creation_date 1977-10-06
_audit_creation_method CSD-ConQuest-V1
_database_code_CSD MATCMN04
_chemical_formula_sum 'C2 H12 Cl4 Mn1 N2'
_chemical_formula_moiety
;
(C1 H6 N1 1+)2n,n(Cl4 Mn1 2-)
;
_journal_coeditor_code "IUCr A14634"
_journal_coden_Cambridge 107
_journal_volume 33
_journal_year 1977
_journal_page_first 1317
_journal_name_full 'Acta Crystallogr.,Sect.B:Struct.Crystallogr.Cryst.Chem. '
loop_
_publ_author_name
"I.Mikhail"
_chemical_name_systematic
;
catena-(bis(Methylammonium) bis(\m~2~-chloro)-dichloro-manganese(ii))
;
_cell_volume   1009.912
_exptl_crystal_density_diffrn 1.68
_exptl_special_details
;
orthorhombic gamma polymorph
PSEUDO-TETRAGONAL

;
_diffrn_ambient_temperature 188
_diffrn_radiation_probe 'neutron radiation'
#These two values have been output from a single CSD field.
_refine_ls_R_factor_gt 0.048
_refine_ls_wR_factor_gt 0.048
_symmetry_cell_setting orthorhombic
_symmetry_space_group_name_H-M 'P c c n'
_symmetry_Int_Tables_number 56
loop_
_symmetry_equiv_pos_site_id
_symmetry_equiv_pos_as_xyz
1 x,y,z
2 1/2-x,y,1/2+z
3 x,1/2-y,1/2+z
4 1/2-x,1/2-y,z
5 -x,-y,-z
6 -1/2+x,-y,-1/2-z
7 -x,-1/2+y,-1/2-z
8 -1/2+x,-1/2+y,-z
_cell_length_a 7.23
_cell_length_b 7.23
_cell_length_c 19.32
_cell_angle_alpha 90
_cell_angle_beta 90
_cell_angle_gamma 90
_cell_formula_units_Z 4
loop_
_atom_type_symbol
_atom_type_radius_bond
C 0.68
H 0.23
Cl 0.99
Mn 1.45
N 0.68
loop_
_atom_site_label
_atom_site_type_symbol
_atom_site_fract_x
_atom_site_fract_y
_atom_site_fract_z
Mn1 Mn 0.00000 0.00000 0.00000
Cl1 Cl 0.25000 0.25000 -0.01750
Cl2 Cl -0.25000 0.25000 0.00080
H1 H 0.03500 0.05740 0.41850
H2 H -0.15560 0.00490 0.39220
H3 H 0.03980 -0.14890 0.39040
H4 H 0.15100 -0.00210 0.30070
H5 H 0.00230 0.17420 0.30490
H6 H -0.02320 -0.06220 0.27760
Cl3 Cl 0.02750 0.03010 0.12790
C1 C 0.03420 0.02840 0.31260
N1 N -0.02750 -0.01560 0.38460
Cl3D Cl -0.02750 -0.03010 -0.12790
Cl1D Cl -0.25000 -0.25000 0.01750
Cl2D Cl 0.25000 -0.25000 -0.00080
Mn1C Mn 0.50000 0.50000 0.00000
Mn1C* Mn -0.50000 0.50000 0.00000
#END

data_CSD_CIF_MATCMN05
_audit_creation_date 1977-10-06
_audit_creation_method CSD-ConQuest-V1
_database_code_CSD MATCMN05
_chemical_formula_sum 'C2 H12 Cl4 Mn1 N2'
_chemical_formula_moiety
;
(C1 H6 N1 1+)2n,n(Cl4 Mn1 2-)
;
_journal_coeditor_code "IUCr A14635"
_journal_coden_Cambridge 107
_journal_volume 33
_journal_year 1977
_journal_page_first 1321
_journal_name_full 'Acta Crystallogr.,Sect.B:Struct.Crystallogr.Cryst.Chem. '
loop_
_publ_author_name
"I.Mikhail"
_chemical_name_systematic
;
catena-[bis(Methylammonium) bis(\m~2~-chloro)-dichloro-manganese(ii)]
;
_cell_volume    510.457
_exptl_special_details
;
tetragonal alpha polymorph

;
_diffrn_ambient_temperature 404
_diffrn_radiation_probe 'neutron radiation'
_refine_special_details
;
CHLORINE ATOMS CL1,CL2 HAVE OCCUPANCY 0.25,0.5. THE METHYLAMMONIUM GROUP IS 
DISORDERED.
;
#These two values have been output from a single CSD field.
_refine_ls_R_factor_gt 0.056
_refine_ls_wR_factor_gt 0.056
_symmetry_cell_setting tetragonal
_symmetry_space_group_name_H-M 'I 4/m'
_symmetry_Int_Tables_number 87
loop_
_symmetry_equiv_pos_site_id
_symmetry_equiv_pos_as_xyz
1 x,y,z
2 1/2+x,1/2+y,1/2+z
3 -y,x,z
4 1/2-y,1/2+x,1/2+z
5 -x,-y,z
6 1/2-x,1/2-y,1/2+z
7 y,-x,z
8 1/2+y,1/2-x,1/2+z
9 -x,-y,-z
10 -1/2-x,-1/2-y,-1/2-z
11 y,-x,-z
12 -1/2+y,-1/2-x,-1/2-z
13 x,y,-z
14 -1/2+x,-1/2+y,-1/2-z
15 -y,x,-z
16 -1/2-y,-1/2+x,-1/2-z
_cell_length_a 5.119
_cell_length_b 5.119
_cell_length_c 19.48
_cell_angle_alpha 90
_cell_angle_beta 90
_cell_angle_gamma 90
_cell_formula_units_Z 4
loop_
_atom_type_symbol
_atom_type_radius_bond
C 0.68
H 0.23
Cl 0.99
Mn 1.45
N 0.68
loop_
_atom_site_label
_atom_site_type_symbol
_atom_site_fract_x
_atom_site_fract_y
_atom_site_fract_z
Mn1 Mn 0.00000 0.00000 0.00000
Cl1 Cl 0.00000 0.50000 0.0111(1)
Cl2 Cl 0.0569(8) -0.0073(4) 0.12690
C1 C 0.0341(5) 0.0704(3) 0.3123(1)
N1 N 0.0285(9) 0.0383(8) 0.3838(1)
H1 H 0.1956(5) 0.1238(2) 0.3979(6)
H2 H -0.09360 0.0772(1) 0.4085(5)
H3 H 0.1690(4) 0.1521(1) 0.3008(1)
H4 H -0.0413(1) 0.17530 0.2912(2)
Cl1* Cl 0.00000 -0.50000 0.0111(1)
Mn1* Mn 0.00000 -1.00000 0.00000
Cl1** Cl 0.00000 -1.50000 0.0111(1)
Cl1B Cl -0.50000 -1.00000 0.0111(1)
Mn1B Mn -1.00000 -1.00000 0.00000
Cl1B* Cl -1.50000 -1.00000 0.0111(1)
Cl1D Cl -1.00000 -1.50000 0.0111(1)
Cl1D* Cl -1.00000 -0.50000 0.0111(1)
Cl1J Cl -0.50000 -1.00000 -0.0111(1)
Cl1B** Cl 0.50000 -1.00000 0.0111(1)
Cl1H Cl 0.00000 -1.50000 -0.0111(1)
Mn1H Mn 0.00000 -2.00000 0.00000
Cl1H* Cl 0.00000 -2.50000 -0.0111(1)
Cl1J* Cl 0.50000 -2.00000 -0.0111(1)
Cl1J** Cl -0.50000 -2.00000 -0.0111(1)
Cl1B*** Cl 0.50000 -2.00000 0.0111(1)
Cl1B**** Cl -0.50000 -2.00000 0.0111(1)
Cl2H Cl -0.0569(8) -1.9927(4) -0.12690
Cl2J Cl -0.0073(8) -2.0569(4) -0.12690
Cl2L Cl 0.0569(8) -2.0073(4) -0.12690
Cl2N Cl 0.0073(8) -1.9431(4) -0.12690
Cl2* Cl 0.0569(8) -2.0073(4) 0.12690
Cl2B Cl 0.0073(8) -1.9431(4) 0.12690
Cl2F Cl -0.0073(8) -2.0569(4) 0.12690
Cl2D Cl -0.0569(8) -1.9927(4) 0.12690
Cl1H** Cl 0.00000 -0.50000 -0.0111(1)
Cl1J*** Cl 0.50000 -1.00000 -0.0111(1)
Cl2** Cl 0.0569(8) -1.0073(4) 0.12690
Cl2B* Cl 0.0073(8) -0.9431(4) 0.12690
Cl2D* Cl -0.0569(8) -0.9927(4) 0.12690
Cl2F* Cl -0.0073(8) -1.0569(4) 0.12690
Cl2H* Cl -0.0569(8) -0.9927(4) -0.12690
Cl2J* Cl -0.0073(8) -1.0569(4) -0.12690
Cl2L* Cl 0.0569(8) -1.0073(4) -0.12690
Cl2N* Cl 0.0073(8) -0.9431(4) -0.12690
Cl1J**** Cl -1.50000 -1.00000 -0.0111(1)
Cl1L Cl -1.00000 -1.50000 -0.0111(1)
Cl1L* Cl -1.00000 -0.50000 -0.0111(1)
Cl2B** Cl -0.9927(8) -0.9431(4) 0.12690
Cl2D** Cl -1.0569(8) -0.9927(4) 0.12690
Cl2F** Cl -1.0073(8) -1.0569(4) 0.12690
Cl2*** Cl -0.9431(8) -1.0073(4) 0.12690
Cl2J** Cl -1.0073(8) -1.0569(4) -0.12690
Cl2L** Cl -0.9431(8) -1.0073(4) -0.12690
Cl2N** Cl -0.9927(8) -0.9431(4) -0.12690
Cl2H** Cl -1.0569(8) -0.9927(4) -0.12690
Cl1H*** Cl 0.00000 0.50000 -0.0111(1)
Cl2D*** Cl -0.0569(8) 0.0073(4) 0.12690
C1B C -0.0704(5) 0.0341(3) 0.3123(1)
C1D C -0.0341(5) -0.0704(3) 0.3123(1)
C1F C 0.0704(5) -0.0341(3) 0.3123(1)
N1D N -0.0285(9) -0.0383(8) 0.3838(1)
N1F N 0.0383(9) -0.0285(8) 0.3838(1)
N1B N -0.0383(9) 0.0285(8) 0.3838(1)
H3B H -0.1521(4) 0.1690(1) 0.3008(1)
H3D H -0.1690(4) -0.1521(1) 0.3008(1)
H4B H -0.1753(1) -0.04130 0.2912(2)
H3F H 0.1521(4) -0.1690(1) 0.3008(1)
H4D H 0.0413(1) -0.17530 0.2912(2)
H4F H 0.1753(1) 0.04130 0.2912(2)
H1F H 0.1238(5) -0.1956(2) 0.3979(6)
H2F H 0.07720 0.0936(1) 0.4085(5)
H1D H -0.1956(5) -0.1238(2) 0.3979(6)
H1B H -0.1238(5) 0.1956(2) 0.3979(6)
H2B H -0.07720 -0.0936(1) 0.4085(5)
H2D H 0.09360 -0.0772(1) 0.4085(5)
#END

data_CSD_CIF_MATCMN07
_audit_creation_date 1979-08-06
_audit_creation_method CSD-ConQuest-V1
_database_code_CSD MATCMN07
_chemical_formula_sum 'C2 H12 Cl4 Mn1 N2'
_chemical_formula_moiety
;
(C1 H6 N1 1+)2n,n(Cl4 Mn1 2-)
;
_journal_coden_Cambridge 199
_journal_volume 35
_journal_year 1976
_journal_page_first 627
_journal_name_full 'Phys.Status Solidi B '
loop_
_publ_author_name
"G.Heger"
"D.Mullen"
"K.Knorr"
_chemical_name_systematic
;
catena-(bis(Methylammonium) bis(\m~2~-chloro)-dichloro-manganese(ii))
;
_cell_volume   1009.912
_exptl_special_details
;
low-temperature tetragonal polymorph

;
_diffrn_ambient_temperature 188
_diffrn_radiation_probe 'neutron radiation'
#These two values have been output from a single CSD field.
_refine_ls_R_factor_gt 0.075
_refine_ls_wR_factor_gt 0.075
_symmetry_cell_setting tetragonal
_symmetry_space_group_name_H-M 'P 42/n c m'
_symmetry_Int_Tables_number 138
loop_
_symmetry_equiv_pos_site_id
_symmetry_equiv_pos_as_xyz
1 x,y,z
2 1/2-y,x,1/2+z
3 1/2-x,1/2-y,z
4 y,1/2-x,1/2+z
5 1/2-x,y,1/2+z
6 y,x,z
7 x,1/2-y,1/2+z
8 1/2-y,1/2-x,z
9 -x,-y,-z
10 -1/2+y,-x,-1/2-z
11 -1/2+x,-1/2+y,-z
12 -y,-1/2+x,-1/2-z
13 -1/2+x,-y,-1/2-z
14 -y,-x,-z
15 -x,-1/2+y,-1/2-z
16 -1/2+y,-1/2+x,-z
_cell_length_a 7.23(1)
_cell_length_b 7.23(1)
_cell_length_c 19.32(2)
_cell_angle_alpha 90
_cell_angle_beta 90
_cell_angle_gamma 90
_cell_formula_units_Z 4
loop_
_atom_type_symbol
_atom_type_radius_bond
C 0.68
H 0.23
Cl 0.99
Mn 1.45
N 0.68
loop_
_atom_site_label
_atom_site_type_symbol
_atom_site_fract_x
_atom_site_fract_y
_atom_site_fract_z
Mn1 Mn 0.00000 0.00000 0.00000
Cl1 Cl -0.25000 0.25000 0.00000
Cl2 Cl 0.25000 0.25000 -0.01740
Cl3 Cl 0.03100 0.03100 0.12830
C1 C 0.02900 0.02900 0.31200
N1 N -0.01500 -0.01500 0.38550
H1 H 0.16300 -0.00900 0.30400
H2 H -0.04700 -0.04700 0.27900
H3 H 0.01600 -0.14100 0.39200
H4 H 0.05600 0.05600 0.41900
H3E H -0.14100 0.01600 0.39200
H1E H -0.00900 0.16300 0.30400
Cl3H Cl -0.03100 -0.03100 -0.12830
Cl1E Cl 0.25000 -0.25000 0.00000
Cl2H Cl -0.25000 -0.25000 0.01740
Mn1B Mn -0.50000 0.50000 0.00000
Mn1B* Mn 0.50000 0.50000 0.00000
#END

data_CSD_CIF_MATCMN08
_audit_creation_date 1979-02-06
_audit_creation_method CSD-ConQuest-V1
_database_code_CSD MATCMN08
_chemical_formula_sum 'C2 H12 Cl4 Mn1 N2'
_chemical_formula_moiety
;
2(C1 H6 N1 1+),Cl4 Mn1 2-
;
_journal_coden_Cambridge 231
_journal_volume 22
_journal_year 1977
_journal_page_first 857
_journal_name_full 'Rev.Roum.Chim. '
loop_
_publ_author_name
"A.Daoud"
"A.Thrierr-Sorel"
"R.Perret"
"B.Chaillot"
_chemical_name_systematic
;
bis(Methylammonium) tetrachloro-manganese(ii)
;
_cell_volume   1015.458
_exptl_special_details
;
beta polymorph

;
_diffrn_ambient_temperature ?
_diffrn_special_details
;
The study was carried out at room temperature,in the range 283-303K

;
_symmetry_cell_setting orthorhombic
_symmetry_space_group_name_H-M 'C m c a'
_symmetry_Int_Tables_number 64
_cell_length_a 7.19
_cell_length_b 19.4
_cell_length_c 7.28
_cell_angle_alpha 90
_cell_angle_beta 90
_cell_angle_gamma 90
#END

data_CSD_CIF_MATCMN09
_audit_creation_date 1980-07-01
_audit_creation_method CSD-ConQuest-V1
_database_code_CSD MATCMN09
_chemical_formula_sum 'C2 H12 Cl4 Mn1 N2'
_chemical_formula_moiety
;
(C1 H6 N1 1+)2n,n(Cl4 Mn1 2-)
;
_journal_coden_Cambridge 208
_journal_volume 29
_journal_year 1979
_journal_page_first 15
_journal_name_full 'J.Solid State Chem. '
loop_
_publ_author_name
"W.Depmeier"
_chemical_name_systematic
;
catena-(bis(Methylammonium) bis(\m~2~-chloro)-dichloro-manganese(ii))
;
_cell_volume   1014.150
_exptl_special_details
;
beta polymorph
phase transition at 398K

;
_diffrn_ambient_temperature ?
_diffrn_special_details
;
The study was carried out at room temperature,in the range 283-303K

;
_symmetry_cell_setting orthorhombic
_symmetry_space_group_name_H-M 'A b m a'
_symmetry_Int_Tables_number 64
_cell_length_a 7.263(2)
_cell_length_b 7.202(2)
_cell_length_c 19.388(8)
_cell_angle_alpha 90
_cell_angle_beta 90
_cell_angle_gamma 90
#END

data_CSD_CIF_MATCMN10
_audit_creation_date 1976-07-14
_audit_creation_method CSD-ConQuest-V1
_database_code_CSD MATCMN10
_chemical_formula_sum 'C2 H12 Cl4 Mn1 N2'
_chemical_formula_moiety
;
(C1 H6 N1 1+)2n,n(Cl4 Mn1 2-)
;
_journal_coden_Cambridge 199
_journal_volume 31
_journal_year 1975
_journal_page_first 455
_journal_name_full 'Phys.Status Solidi B '
loop_
_publ_author_name
"G.Heger"
"D.Mullen"
"K.Knorr"
_chemical_name_systematic
;
bis(Methylammonium) tetrachloro-manganese(ii)
;
_cell_volume    514.043
_exptl_special_details
;
tetragonal alpha polymorph

;
_diffrn_ambient_temperature 404
_diffrn_radiation_probe 'neutron radiation'
_refine_special_details
;
Total disorder.

;
#These two values have been output from a single CSD field.
_refine_ls_R_factor_gt 0.08
_refine_ls_wR_factor_gt 0.08
_symmetry_cell_setting tetragonal
_symmetry_space_group_name_H-M 'I 4/m m m'
_symmetry_Int_Tables_number 139
_cell_length_a 5.133(4)
_cell_length_b 5.133(4)
_cell_length_c 19.51(1)
_cell_angle_alpha 90
_cell_angle_beta 90
_cell_angle_gamma 90
#END

data_CSD_CIF_MATCMN12
_audit_creation_date 1983-10-06
_audit_creation_method CSD-ConQuest-V1
_database_code_CSD MATCMN12
_chemical_formula_sum 'C2 H12 Cl4 Mn1 N2'
_chemical_formula_moiety
;
(C1 H6 N1 1+)2n,n(Cl4 Mn1 2-)
;
_journal_coden_Cambridge 9
_journal_volume 22
_journal_year 1983
_journal_page_first 455
_journal_name_full 'Inorg.Chem. '
loop_
_publ_author_name
"G.Chapuis"
"G.Brunisholz"
"C.Javet"
"R.Roulet"
_chemical_name_systematic
;
catena-(bis(Methylammonium) bis(\m~2~-chloro)-dichloro-manganese(ii))
;
_cell_volume   1017.127
_exptl_crystal_colour 'dark red'
_exptl_crystal_density_diffrn 1.703
_exptl_special_details
;
orthorhombic beta polymorph
Isomorphous with the Mn analogue

;
_diffrn_ambient_temperature ?
_diffrn_special_details
;
The study was carried out at room temperature,in the range 283-303K

;
_refine_special_details
;
The structure contains 0.03 Cu and 0.97 Mn. The population parameters 
actually refine to 0.02,0.98.
;
#These two values have been output from a single CSD field.
_refine_ls_R_factor_gt 0.021
_refine_ls_wR_factor_gt 0.021
_symmetry_cell_setting orthorhombic
_symmetry_space_group_name_H-M 'B m a b'
_symmetry_Int_Tables_number 64
loop_
_symmetry_equiv_pos_site_id
_symmetry_equiv_pos_as_xyz
1 x,y,z
2 1/2+x,y,1/2+z
3 -x,y,z
4 1/2-x,y,1/2+z
5 1/2+x,1/2-y,z
6 x,1/2-y,1/2+z
7 1/2-x,1/2-y,z
8 -x,1/2-y,1/2+z
9 -x,-y,-z
10 -1/2-x,-y,-1/2-z
11 x,-y,-z
12 -1/2+x,-y,-1/2-z
13 -1/2-x,-1/2+y,-z
14 -x,-1/2+y,-1/2-z
15 -1/2+x,-1/2+y,-z
16 x,-1/2+y,-1/2-z
_cell_length_a 7.209(2)
_cell_length_b 7.272(2)
_cell_length_c 19.402(8)
_cell_angle_alpha 90
_cell_angle_beta 90
_cell_angle_gamma 90
_cell_formula_units_Z 4
loop_
_atom_type_symbol
_atom_type_radius_bond
C 0.68
H 0.23
Cl 0.99
Mn 1.35
N 0.68
loop_
_atom_site_label
_atom_site_type_symbol
_atom_site_fract_x
_atom_site_fract_y
_atom_site_fract_z
Cl1 Cl 0.25000 0.25000 0.01028
Cl2 Cl 0.00000 -0.03440 0.12751
N1 N 0.50000 -0.01690 0.11570
C1 C 0.50000 0.03300 0.18750
H1 H 0.50000 -0.13400 0.10400
H2 H 0.56100 0.03200 0.10100
H3 H 0.50000 0.12900 0.20100
H4 H 0.41800 -0.03600 0.20900
Mn1 Mn 0.00000 0.00000 0.00000
Mn1D Mn 0.50000 0.50000 0.00000
H2B H 0.43900 0.03200 0.10100
H4B H 0.58200 -0.03600 0.20900
Cl1B Cl -0.25000 0.25000 0.01028
Cl1H Cl -0.25000 -0.25000 -0.01028
Cl1J Cl 0.25000 -0.25000 -0.01028
Cl2H Cl 0.00000 0.03440 -0.12751
Mn1D* Mn -0.50000 0.50000 0.00000
#END

data_CSD_CIF_MATCMN13
_audit_creation_date 1983-10-06
_audit_creation_method CSD-ConQuest-V1
_database_code_CSD MATCMN13
_chemical_formula_sum 'C2 H12 Cl4 Mn1 N2'
_chemical_formula_moiety
;
2(C1 H6 N1 1+),Cl4 Mn1 2-
;
_journal_coden_Cambridge 9
_journal_volume 22
_journal_year 1983
_journal_page_first 455
_journal_name_full 'Inorg.Chem. '
loop_
_publ_author_name
"G.Chapuis"
"G.Brunisholz"
"C.Javet"
"R.Roulet"
_chemical_name_systematic
;
bis(Methylammonium) tetrachloro-manganese
;
_cell_volume   1017.719
_exptl_crystal_colour 'pink'
_exptl_special_details
;
orthorhombic polymorph
Isomorphous with the Mn/Cu analogue

;
_diffrn_ambient_temperature ?
_diffrn_special_details
;
The study was carried out at room temperature,in the range 283-303K

;
_symmetry_cell_setting orthorhombic
_symmetry_space_group_name_H-M ?
_symmetry_Int_Tables_number ?
_cell_length_a 7.207(1)
_cell_length_b 7.273(1)
_cell_length_c 19.416(2)
_cell_angle_alpha 90
_cell_angle_beta 90
_cell_angle_gamma 90
#END
