####################################################################### 
# 
# This file contains crystal structure data downloaded from the 
# Cambridge Structural Database (CSD) hosted by the Cambridge 
# Crystallographic Data Centre (CCDC).
# 
# Full information about CCDC data access policies and citation 
# guidelines are available at http://www.ccdc.cam.ac.uk/access/V1 
# 
# Audit and citation data items may have been added by the CCDC. 
# Please retain this information to preserve the provenance of 
# this file and to allow appropriate attribution of the data. 
# 
#######################################################################

data_gr0219a
_audit_block_doi                 10.5517/cc87z7p
_database_code_depnum_ccdc_archive 'CCDC 245992'
loop_
_citation_id
_citation_doi
_citation_year
1 10.1107/S0108767393001023 1993
_audit_update_record             
;
2004-07-27 deposited with the CCDC.
2016-04-21 downloaded from the CCDC.
;
_chemical_formula_moiety         ?
_chemical_formula_sum            'C6 H12 N4'
_chemical_formula_weight         140.0
_symmetry_cell_setting           cubic
_symmetry_space_group_name_H-M   'I -4 3 m'
_symmetry_space_group_name_Hall  'I -4 2 3'
_cell_length_a                   7.028
_cell_length_b                   7.028
_cell_length_c                   7.028
_cell_angle_alpha                90
_cell_angle_beta                 90
_cell_angle_gamma                90
_cell_volume                     347.13
_cell_formula_units_Z            1
_exptl_crystal_density_diffrn    ?
_exptl_crystal_density_meas      ?
_exptl_crystal_F_000             ?
_exptl_absorpt_coefficient_mu    3.02
_diffrn_radiation_type           neutron
_diffrn_radiation_wavelength     1.038
loop_
_atom_site_label
_atom_site_fract_x
_atom_site_fract_y
_atom_site_fract_z
_atom_site_U_iso_or_equiv
C .2379(4) .0 .0 ?
N .1222(6) .1222 .1222 ?
H .3229(11) -.0894(9) .0894 ?


