####################################################################### 
# 
# This file contains crystal structure data downloaded from the 
# Cambridge Structural Database (CSD) hosted by the Cambridge 
# Crystallographic Data Centre (CCDC).
# 
# Full information about CCDC data access policies and citation 
# guidelines are available at http://www.ccdc.cam.ac.uk/access/V1 
# 
# Audit and citation data items may have been added by the CCDC. 
# Please retain this information to preserve the provenance of 
# this file and to allow appropriate attribution of the data. 
# 
#######################################################################

data_cmpd_1
_audit_block_doi                 10.5517/ccvccp7
_database_code_depnum_ccdc_archive 'CCDC 785499'
loop_
_citation_id
_citation_doi
_citation_year
1 10.1107/S0567739475001064 1975
_audit_update_record             
;
2010-07-26 deposited with the CCDC.
2016-04-21 downloaded from the CCDC.
;

_audit_creation_method           'manually at CCDC'

_chemical_name_systematic        
;
Hexamethylenetetramine
;
_chemical_name_common            ?
_chemical_formula_sum            'C6 H12 N4'

_chemical_formula_weight         ?
_symmetry_cell_setting           cubic
_symmetry_space_group_name_H-M   I-43m
_symmetry_Int_Tables_number      ?

loop_
_symmetry_equiv_pos_as_xyz
?
?
?

_cell_length_a                   7.028(2)
_cell_length_b                   7.028(2)
_cell_length_c                   7.028(2)
_cell_angle_alpha                90
_cell_angle_beta                 90
_cell_angle_gamma                90
_cell_volume                     ?
_cell_formula_units_Z            2

_exptl_crystal_density_diffrn    ?

_diffrn_ambient_temperature      296

_diffrn_source                   ?

_diffrn_radiation_probe          x-ray
_diffrn_radiation_type           ?
_chemical_melting_point          ?

_exptl_special_details           
;
crystalisation from ethanol
;

_refine_special_details          
;
RHF refinement sin theta 0.0-0.65
;

_refine_ls_R_factor_gt           0.0286
#This value may have been taken from more than one field

loop_
_atom_site_label
_atom_site_fract_x
_atom_site_fract_y
_atom_site_fract_z
N 0.1223(1) 0.1223(1) 0.1223(1)
C 0.2382(1) 0 0
H 0.0898(8) 0.0898(8) -0.3187(7)
