####################################################################### 
# 
# This file contains crystal structure data downloaded from the 
# Cambridge Structural Database (CSD) hosted by the Cambridge 
# Crystallographic Data Centre (CCDC).
# 
# Full information about CCDC data access policies and citation 
# guidelines are available at http://www.ccdc.cam.ac.uk/access/V1 
# 
# Audit and citation data items may have been added by the CCDC. 
# Please retain this information to preserve the provenance of 
# this file and to allow appropriate attribution of the data. 
# 
#######################################################################

data_urea
_audit_block_doi                 10.5517/cc81gvl
_database_code_depnum_ccdc_archive 'CCDC 239749'
_audit_update_record             
;
2004-05-24 deposited with the CCDC.
2016-05-20 downloaded from the CCDC.
;

_audit_creation_method           SHELXL-97


_chemical_name_systematic        
;
urea+alicin
;
_chemical_name_common            urea+alicin
_chemical_melting_point          ?
_chemical_formula_moiety         'C H4 N2 O'
_chemical_formula_sum            'C H4 N2 O'
_chemical_formula_weight         60.06

loop_
_atom_type_symbol
_atom_type_description
_atom_type_scat_dispersion_real
_atom_type_scat_dispersion_imag
_atom_type_scat_source
C C 0.0033 0.0016 'International Tables Vol C Tables 4.2.6.8 and 6.1.1.4'
H H 0.0000 0.0000 'International Tables Vol C Tables 4.2.6.8 and 6.1.1.4'
N N 0.0061 0.0033 'International Tables Vol C Tables 4.2.6.8 and 6.1.1.4'
O O 0.0106 0.0060 'International Tables Vol C Tables 4.2.6.8 and 6.1.1.4'

_symmetry_cell_setting           tetragonal
_symmetry_space_group_name_H-M   P-421m

loop_
_symmetry_equiv_pos_as_xyz
'x, y, z'
'-y, x, -z'
'-x, -y, z'
'y, -x, -z'
'-x+1/2, y+1/2, -z'
'y+1/2, x+1/2, z'
'x+1/2, -y+1/2, -z'
'-y+1/2, -x+1/2, z'

_cell_length_a                   5.6577(11)
_cell_length_b                   5.6577(11)
_cell_length_c                   4.7042(8)
_cell_angle_alpha                90.00
_cell_angle_beta                 90.00
_cell_angle_gamma                90.00
_cell_volume                     150.58(5)
_cell_formula_units_Z            2
_cell_measurement_temperature    293(2)
_cell_measurement_reflns_used    ?
_cell_measurement_theta_min      1.9
_cell_measurement_theta_max      28.15

_exptl_crystal_description       plate-like
_exptl_crystal_colour            colourless
_exptl_crystal_size_max          0.32
_exptl_crystal_size_mid          0.30
_exptl_crystal_size_min          0.12
_exptl_crystal_density_meas      ?
_exptl_crystal_density_diffrn    1.325
_exptl_crystal_density_method    'not measured'
_exptl_crystal_F_000             64
_exptl_absorpt_coefficient_mu    0.114
_exptl_absorpt_correction_type   none
_exptl_absorpt_correction_T_min  ?
_exptl_absorpt_correction_T_max  ?
_exptl_absorpt_process_details   ?

_exptl_special_details           
;
?
;

_diffrn_ambient_temperature      293(2)
_diffrn_radiation_wavelength     0.71073
_diffrn_radiation_type           MoK\a
_diffrn_radiation_source         'fine-focus sealed tube'
_diffrn_radiation_monochromator  graphite
_diffrn_measurement_device_type  STOE-IPDS
_diffrn_measurement_method       'phi rotation scans'
_diffrn_detector_area_resol_mean ?
_diffrn_standards_number         200
_diffrn_standards_interval_count ?
_diffrn_standards_interval_time  ?
_diffrn_standards_decay_%        ?
_diffrn_reflns_number            2623
_diffrn_reflns_av_R_equivalents  0.0432
_diffrn_reflns_av_sigmaI/netI    0.0167
_diffrn_reflns_limit_h_min       -7
_diffrn_reflns_limit_h_max       7
_diffrn_reflns_limit_k_min       -7
_diffrn_reflns_limit_k_max       7
_diffrn_reflns_limit_l_min       -5
_diffrn_reflns_limit_l_max       5
_diffrn_reflns_theta_min         4.33
_diffrn_reflns_theta_max         27.98
_reflns_number_total             205
_reflns_number_gt                176
_reflns_threshold_expression     >2sigma(I)

_computing_data_collection       'Stoe XRED program package'
_computing_cell_refinement       'Stoe XRED program package'
_computing_data_reduction        'Stoe XRED program package'
_computing_structure_solution    'SHELXS-86 (Sheldrick, 1985)'
_computing_structure_refinement  'SHELXL-97 (Sheldrick, 1997)'
_computing_molecular_graphics    'ORTEP-3 (Farrugia,1997)'
_computing_publication_material  'WinGX (Farrugia,1999)'

_refine_special_details          
;
Refinement of F^2^ against ALL reflections.  The weighted R-factor wR and
goodness of fit S are based on F^2^, conventional R-factors R are based
on F, with F set to zero for negative F^2^. The threshold expression of
F^2^ > 2sigma(F^2^) is used only for calculating R-factors(gt) etc. and is
not relevant to the choice of reflections for refinement.  R-factors based
on F^2^ are statistically about twice as large as those based on F, and R-
factors based on ALL data will be even larger.
;

_refine_ls_structure_factor_coef Fsqd
_refine_ls_matrix_type           full
_refine_ls_weighting_scheme      calc
_refine_ls_weighting_details     
'calc w=1/[\s^2^(Fo^2^)+(0.0564P)^2^+0.0000P] where P=(Fo^2^+2Fc^2^)/3'
_atom_sites_solution_primary     direct
_atom_sites_solution_secondary   difmap
_atom_sites_solution_hydrogens   geom
_refine_ls_hydrogen_treatment    mixed
_refine_ls_extinction_method     none
_refine_ls_extinction_coef       ?
_refine_ls_abs_structure_details 'Flack H D (1983), Acta Cryst. A39, 876-881'
_refine_ls_abs_structure_Flack   -1(4)
_refine_ls_number_reflns         205
_refine_ls_number_parameters     21
_refine_ls_number_restraints     0
_refine_ls_R_factor_all          0.0394
_refine_ls_R_factor_gt           0.0339
_refine_ls_wR_factor_ref         0.0837
_refine_ls_wR_factor_gt          0.0798
_refine_ls_goodness_of_fit_ref   1.184
_refine_ls_restrained_S_all      1.184
_refine_ls_shift/su_max          0.000
_refine_ls_shift/su_mean         0.000

loop_
_atom_site_label
_atom_site_type_symbol
_atom_site_fract_x
_atom_site_fract_y
_atom_site_fract_z
_atom_site_U_iso_or_equiv
_atom_site_adp_type
_atom_site_occupancy
_atom_site_symmetry_multiplicity
_atom_site_calc_flag
_atom_site_refinement_flags
_atom_site_disorder_assembly
_atom_site_disorder_group
O O 0.5000 0.0000 0.9021(3) 0.0529(5) Uani 1 4 d S . .
C C 0.5000 0.0000 1.1664(4) 0.0420(5) Uani 1 4 d S . .
N N 0.3588(2) 0.1412(2) 1.3162(4) 0.0687(6) Uani 1 2 d S . .
H1 H 0.362(2) 0.138(2) 1.484(7) 0.055(5) Uiso 1 2 d S . .
H2 H 0.265(4) 0.235(4) 1.211(5) 0.083(8) Uiso 1 2 d S . .

loop_
_atom_site_aniso_label
_atom_site_aniso_U_11
_atom_site_aniso_U_22
_atom_site_aniso_U_33
_atom_site_aniso_U_23
_atom_site_aniso_U_13
_atom_site_aniso_U_12
O 0.0660(7) 0.0660(7) 0.0267(9) 0.000 0.000 -0.0046(9)
C 0.0486(7) 0.0486(7) 0.0287(10) 0.000 0.000 -0.0034(9)
N 0.0865(8) 0.0865(8) 0.0330(10) 0.0006(5) -0.0006(5) 0.0380(9)

_geom_special_details            
;
All esds (except the esd in the dihedral angle between two l.s. planes)
are estimated using the full covariance matrix.  The cell esds are taken
into account individually in the estimation of esds in distances, angles
and torsion angles; correlations between esds in cell parameters are only
used when they are defined by crystal symmetry.  An approximate (isotropic)
treatment of cell esds is used for estimating esds involving l.s. planes.
;

loop_
_geom_bond_atom_site_label_1
_geom_bond_atom_site_label_2
_geom_bond_distance
_geom_bond_site_symmetry_2
_geom_bond_publ_flag
O C 1.244(3) . ?
C N 1.331(2) 3_655 ?
C N 1.331(2) . ?

loop_
_geom_angle_atom_site_label_1
_geom_angle_atom_site_label_2
_geom_angle_atom_site_label_3
_geom_angle
_geom_angle_site_symmetry_1
_geom_angle_site_symmetry_3
_geom_angle_publ_flag
O C N 121.95(12) . 3_655 ?
O C N 121.95(12) . . ?
N C N 116.1(2) 3_655 . ?

_diffrn_measured_fraction_theta_max 0.956
_diffrn_reflns_theta_full        27.98
_diffrn_measured_fraction_theta_full 0.956
_refine_diff_density_max         0.120
_refine_diff_density_min         -0.111
_refine_diff_density_rms         0.038
