####################################################################### 
# 
# This file contains crystal structure data downloaded from the 
# Cambridge Structural Database (CSD) hosted by the Cambridge 
# Crystallographic Data Centre (CCDC).
# 
# Full information about CCDC data access policies and citation 
# guidelines are available at http://www.ccdc.cam.ac.uk/access/V1 
# 
# Audit and citation data items may have been added by the CCDC. 
# Please retain this information to preserve the provenance of 
# this file and to allow appropriate attribution of the data. 
# 
#######################################################################

data_hmx_75
_audit_block_doi                 10.5517/ccvm3g0
_database_code_depnum_ccdc_archive 'CCDC 792932'
loop_
_citation_id
_citation_doi
_citation_year
1 10.1007/s10870-011-0026-6 2011
_audit_update_record             
;
2010-09-09 deposited with the CCDC.
2016-05-20 downloaded from the CCDC.
;
#TrackingRef 'hmx_75-final.cif'


_audit_creation_method           SHELXL-97
_chemical_name_systematic        
;
1,3,5,7-Tetranitro-1,3,5,7-tetra-azacyclo-octane
;
_chemical_name_common            HMX
_chemical_melting_point          ?
_chemical_formula_moiety         'C4 H8 N8 O8'
_chemical_formula_sum            'C4 H8 N8 O8'
_chemical_formula_weight         296.18

loop_
_atom_type_symbol
_atom_type_description
_atom_type_scat_dispersion_real
_atom_type_scat_dispersion_imag
_atom_type_scat_source
C C 0.0033 0.0016 'International Tables Vol C Tables 4.2.6.8 and 6.1.1.4'
H H 0.0000 0.0000 'International Tables Vol C Tables 4.2.6.8 and 6.1.1.4'
N N 0.0061 0.0033 'International Tables Vol C Tables 4.2.6.8 and 6.1.1.4'
O O 0.0106 0.0060 'International Tables Vol C Tables 4.2.6.8 and 6.1.1.4'

_symmetry_cell_setting           monoclinic
_symmetry_space_group_name_H-M   'P 21/n'


loop_
_symmetry_equiv_pos_as_xyz
'x, y, z'
'-x+1/2, y+1/2, -z+1/2'
'-x, -y, -z'
'x-1/2, -y-1/2, z-1/2'

_cell_length_a                   6.5206(9)
_cell_length_b                   10.9123(16)
_cell_length_c                   7.3395(11)
_cell_angle_alpha                90.00
_cell_angle_beta                 102.467(9)
_cell_angle_gamma                90.00
_cell_volume                     509.93(13)
_cell_formula_units_Z            2
_cell_measurement_temperature    198(2)
_cell_measurement_reflns_used    751
_cell_measurement_theta_min      3.40
_cell_measurement_theta_max      28.46

_exptl_crystal_description       prisim
_exptl_crystal_colour            colourless
_exptl_crystal_size_min          0.136
_exptl_crystal_size_mid          0.246
_exptl_crystal_size_max          0.286
_exptl_crystal_density_meas      ?
_exptl_crystal_density_diffrn    1.929
_exptl_crystal_density_method    'not measured'
_exptl_crystal_F_000             304
_exptl_absorpt_coefficient_mu    0.183
_exptl_absorpt_correction_type   none
_exptl_absorpt_correction_T_min  ?
_exptl_absorpt_correction_T_max  ?
_exptl_absorpt_process_details   ?

_exptl_special_details           
;
?
;

_diffrn_ambient_temperature      198(2)
# SMART APEX II parameters
_diffrn_radiation_wavelength     0.71073
_diffrn_radiation_type           MoK\a
_diffrn_radiation_source         'fine-focus sealed tube'
_diffrn_radiation_monochromator  graphite
_diffrn_measurement_device_type  'Bruker SMART APEX II CCD'
_diffrn_measurement_method       '\w scans'
_diffrn_detector_area_resol_mean ?
_diffrn_standards_number         ?
_diffrn_standards_interval_count ?
_diffrn_standards_interval_time  ?
_diffrn_standards_decay_%        ?
_diffrn_reflns_number            999
_diffrn_reflns_av_R_equivalents  0.0251
_diffrn_reflns_av_sigmaI/netI    0.0193
_diffrn_reflns_limit_h_min       -6
_diffrn_reflns_limit_h_max       8
_diffrn_reflns_limit_k_min       -14
_diffrn_reflns_limit_k_max       12
_diffrn_reflns_limit_l_min       -8
_diffrn_reflns_limit_l_max       9
_diffrn_reflns_theta_min         3.40
_diffrn_reflns_theta_max         28.46
_reflns_number_total             788
_reflns_number_gt                717
_reflns_threshold_expression     I>2\s(I)

_computing_data_collection       'Bruker SMART v5.631 (Bruker, 2001)'
_computing_cell_refinement       'Bruker SMART v5.631 (Bruker, 2001)'
_computing_data_reduction        
;
Bruker SAINT v6.45A (Bruker, 2002), Bruker XPREP v6.14 (Bruker, 2001)
;
_computing_structure_solution    'Bruker SHELXTL v6.14 (Bruker, 2000b)'
_computing_structure_refinement  'Bruker SHELXTL v6.14 (Bruker, 2000b)'
_computing_molecular_graphics    'Bruker SHELXTL v6.14 (Bruker, 2000b)'
_computing_publication_material  'Bruker SHELXTL v6.14 (Bruker, 2000b)'


_refine_special_details          
;
Refinement of F^2^ against ALL reflections. The weighted R-factor wR and
goodness of fit S are based on F^2^, conventional R-factors R are based
on F, with F set to zero for negative F^2^. The threshold expression of
F^2^ > 2sigma(F^2^) is used only for calculating R-factors(gt) etc. and is
not relevant to the choice of reflections for refinement. R-factors based
on F^2^ are statistically about twice as large as those based on F, and R-
factors based on ALL data will be even larger.
;

_refine_ls_structure_factor_coef Fsqd
_refine_ls_matrix_type           full
_refine_ls_weighting_scheme      calc
_refine_ls_weighting_details     
'calc w=1/[\s^2^(Fo^2^)+(0.0477P)^2^+0.1994P] where P=(Fo^2^+2Fc^2^)/3'
_atom_sites_solution_primary     direct
_atom_sites_solution_secondary   difmap
_atom_sites_solution_hydrogens   geom
_refine_ls_hydrogen_treatment    mixed
_refine_ls_extinction_method     none
_refine_ls_extinction_coef       ?
_refine_ls_number_reflns         788
_refine_ls_number_parameters     97
_refine_ls_number_restraints     3
_refine_ls_R_factor_all          0.0363
_refine_ls_R_factor_gt           0.0306
_refine_ls_wR_factor_ref         0.0933
_refine_ls_wR_factor_gt          0.0788
_refine_ls_goodness_of_fit_ref   1.125
_refine_ls_restrained_S_all      1.122
_refine_ls_shift/su_max          0.000
_refine_ls_shift/su_mean         0.000

loop_
_atom_site_label
_atom_site_type_symbol
_atom_site_fract_x
_atom_site_fract_y
_atom_site_fract_z
_atom_site_U_iso_or_equiv
_atom_site_adp_type
_atom_site_occupancy
_atom_site_symmetry_multiplicity
_atom_site_calc_flag
_atom_site_refinement_flags
_atom_site_disorder_assembly
_atom_site_disorder_group
N3 N 0.9812(2) 0.62310(12) 0.4600(2) 0.0177(3) Uani 1 1 d . . .
O3B O 1.2723(2) 0.72003(12) 0.4351(2) 0.0285(4) Uani 1 1 d . . .
N3A N 1.1406(2) 0.70363(12) 0.5302(2) 0.0209(4) Uani 1 1 d . . .
N1 N 0.8569(2) 0.52623(13) 0.7064(2) 0.0205(3) Uani 1 1 d . . .
O1A O 0.7260(2) 0.42901(13) 0.92309(19) 0.0318(4) Uani 1 1 d . . .
N1A N 0.6968(2) 0.50192(13) 0.7937(2) 0.0227(4) Uani 1 1 d . . .
O3A O 1.1415(2) 0.74837(13) 0.6828(2) 0.0315(4) Uani 1 1 d . . .
C2 C 0.8088(2) 0.61590(14) 0.5528(2) 0.0195(4) Uani 1 1 d . . .
H2A H 0.6798 0.5908 0.4627 0.023 Uiso 1 1 calc R . .
H2B H 0.7835 0.6974 0.6030 0.023 Uiso 1 1 calc R . .
O1B O 0.53398(19) 0.56091(13) 0.7374(2) 0.0311(4) Uani 1 1 d . . .
C4 C 0.9782(2) 0.56560(14) 0.2807(2) 0.0191(4) Uani 1 1 d D . .
H4A H 0.8421(11) 0.5271(13) 0.238(2) 0.023 Uiso 1 1 d D . .
H4B H 0.998(3) 0.6244(14) 0.1870(18) 0.023 Uiso 1 1 d D . .

loop_
_atom_site_aniso_label
_atom_site_aniso_U_11
_atom_site_aniso_U_22
_atom_site_aniso_U_33
_atom_site_aniso_U_23
_atom_site_aniso_U_13
_atom_site_aniso_U_12
N3 0.0168(6) 0.0183(6) 0.0181(9) -0.0021(5) 0.0043(6) -0.0036(4)
O3B 0.0237(6) 0.0319(7) 0.0316(10) 0.0035(5) 0.0099(6) -0.0080(5)
N3A 0.0196(6) 0.0188(7) 0.0236(10) -0.0001(5) 0.0031(6) -0.0019(5)
N1 0.0199(6) 0.0230(7) 0.0204(9) 0.0017(5) 0.0086(6) 0.0021(5)
O1A 0.0402(7) 0.0340(7) 0.0252(9) 0.0031(6) 0.0161(6) -0.0018(5)
N1A 0.0220(7) 0.0263(7) 0.0217(10) -0.0051(6) 0.0089(6) -0.0049(5)
O3A 0.0330(7) 0.0344(7) 0.0269(10) -0.0131(6) 0.0058(6) -0.0085(5)
C2 0.0161(6) 0.0222(8) 0.0205(10) 0.0004(6) 0.0047(6) 0.0002(5)
O1B 0.0190(6) 0.0404(8) 0.0358(10) -0.0017(6) 0.0101(6) 0.0008(5)
C4 0.0186(7) 0.0213(7) 0.0173(11) 0.0005(6) 0.0035(7) 0.0012(5)

_geom_special_details            
;
All esds (except the esd in the dihedral angle between two l.s. planes)
are estimated using the full covariance matrix. The cell esds are taken
into account individually in the estimation of esds in distances, angles
and torsion angles; correlations between esds in cell parameters are only
used when they are defined by crystal symmetry. An approximate (isotropic)
treatment of cell esds is used for estimating esds involving l.s. planes.
;

loop_
_geom_bond_atom_site_label_1
_geom_bond_atom_site_label_2
_geom_bond_distance
_geom_bond_site_symmetry_2
_geom_bond_publ_flag
N3 N3A 1.3739(19) . ?
N3 C2 1.4372(18) . ?
N3 C4 1.454(2) . ?
O3B N3A 1.2310(19) . ?
N3A O3A 1.220(2) . ?
N1 N1A 1.3636(18) . ?
N1 C4 1.4580(19) 3_766 ?
N1 C2 1.475(2) . ?
O1A N1A 1.222(2) . ?
N1A O1B 1.234(2) . ?
C2 H2A 0.9900 . ?
C2 H2B 0.9900 . ?
C4 N1 1.4580(19) 3_766 ?
C4 H4A 0.971(10) . ?
C4 H4B 0.969(15) . ?

loop_
_geom_angle_atom_site_label_1
_geom_angle_atom_site_label_2
_geom_angle_atom_site_label_3
_geom_angle
_geom_angle_site_symmetry_1
_geom_angle_site_symmetry_3
_geom_angle_publ_flag
N3A N3 C2 117.59(13) . . ?
N3A N3 C4 118.49(12) . . ?
C2 N3 C4 123.11(12) . . ?
O3A N3A O3B 126.62(14) . . ?
O3A N3A N3 116.96(13) . . ?
O3B N3A N3 116.37(14) . . ?
N1A N1 C4 117.70(14) . 3_766 ?
N1A N1 C2 115.46(13) . . ?
C4 N1 C2 122.53(13) 3_766 . ?
O1A N1A O1B 125.34(15) . . ?
O1A N1A N1 118.99(14) . . ?
O1B N1A N1 115.60(15) . . ?
N3 C2 N1 109.85(12) . . ?
N3 C2 H2A 109.7 . . ?
N1 C2 H2A 109.7 . . ?
N3 C2 H2B 109.7 . . ?
N1 C2 H2B 109.7 . . ?
H2A C2 H2B 108.2 . . ?
N3 C4 N1 111.87(14) . 3_766 ?
N3 C4 H4A 108.1(10) . . ?
N1 C4 H4A 109.5(9) 3_766 . ?
N3 C4 H4B 112.3(12) . . ?
N1 C4 H4B 106.9(12) 3_766 . ?
H4A C4 H4B 108.1(13) . . ?

loop_
_geom_torsion_atom_site_label_1
_geom_torsion_atom_site_label_2
_geom_torsion_atom_site_label_3
_geom_torsion_atom_site_label_4
_geom_torsion
_geom_torsion_site_symmetry_1
_geom_torsion_site_symmetry_2
_geom_torsion_site_symmetry_3
_geom_torsion_site_symmetry_4
_geom_torsion_publ_flag
C2 N3 N3A O3A 11.5(2) . . . . ?
C4 N3 N3A O3A -178.45(15) . . . . ?
C2 N3 N3A O3B -170.85(14) . . . . ?
C4 N3 N3A O3B -0.8(2) . . . . ?
C4 N1 N1A O1A 23.1(2) 3_766 . . . ?
C2 N1 N1A O1A -179.55(14) . . . . ?
C4 N1 N1A O1B -159.64(15) 3_766 . . . ?
C2 N1 N1A O1B -2.3(2) . . . . ?
N3A N3 C2 N1 -87.34(17) . . . . ?
C4 N3 C2 N1 103.14(17) . . . . ?
N1A N1 C2 N3 -173.68(13) . . . . ?
C4 N1 C2 N3 -17.6(2) 3_766 . . . ?
N3A N3 C4 N1 72.15(17) . . . 3_766 ?
C2 N3 C4 N1 -118.42(15) . . . 3_766 ?

_diffrn_measured_fraction_theta_max 0.610
_diffrn_reflns_theta_full        28.46
_diffrn_measured_fraction_theta_full 0.610
_refine_diff_density_max         0.219
_refine_diff_density_min         -0.245
_refine_diff_density_rms         0.059
