data_CSD_CIF_MATCMN12
_audit_creation_date 1983-10-06
_audit_creation_method CSD-ConQuest-V1
_database_code_CSD MATCMN12
_chemical_formula_sum 'C2 H12 Cl4 Mn1 N2'
_chemical_formula_moiety
;
(C1 H6 N1 1+)2n,n(Cl4 Mn1 2-)
;
_journal_coden_Cambridge 9
_journal_volume 22
_journal_year 1983
_journal_page_first 455
_journal_name_full 'Inorg.Chem. '
loop_
_publ_author_name
"G.Chapuis"
"G.Brunisholz"
"C.Javet"
"R.Roulet"
_chemical_name_systematic
;
catena-(bis(Methylammonium) bis(\m~2~-chloro)-dichloro-manganese(ii))
;
_cell_volume   1017.127
_exptl_crystal_colour 'dark red'
_exptl_crystal_density_diffrn 1.703
_exptl_special_details
;
orthorhombic beta polymorph
Isomorphous with the Mn analogue
 
;
_diffrn_ambient_temperature ?
_diffrn_special_details
;
The study was carried out at room temperature,in the range 283-303K
 
;
_refine_special_details
;
The structure contains 0.03 Cu and 0.97 Mn. The population parameters 
actually refine to 0.02,0.98.
;
#These two values have been output from a single CSD field.
_refine_ls_R_factor_gt 0.021
_refine_ls_wR_factor_gt 0.021
_symmetry_cell_setting orthorhombic
_symmetry_space_group_name_H-M 'B m a b'
_symmetry_Int_Tables_number 64
loop_
_symmetry_equiv_pos_site_id
_symmetry_equiv_pos_as_xyz
1 x,y,z
2 1/2+x,y,1/2+z
3 -x,y,z
4 1/2-x,y,1/2+z
5 1/2+x,1/2-y,z
6 x,1/2-y,1/2+z
7 1/2-x,1/2-y,z
8 -x,1/2-y,1/2+z
9 -x,-y,-z
10 -1/2-x,-y,-1/2-z
11 x,-y,-z
12 -1/2+x,-y,-1/2-z
13 -1/2-x,-1/2+y,-z
14 -x,-1/2+y,-1/2-z
15 -1/2+x,-1/2+y,-z
16 x,-1/2+y,-1/2-z
_cell_length_a 7.209(2)
_cell_length_b 7.272(2)
_cell_length_c 19.402(8)
_cell_angle_alpha 90
_cell_angle_beta 90
_cell_angle_gamma 90
_cell_formula_units_Z 4
loop_
_atom_type_symbol
_atom_type_radius_bond
C 0.68
H 0.23
Cl 0.99
Mn 1.35
N 0.68
loop_
_atom_site_label
_atom_site_type_symbol
_atom_site_fract_x
_atom_site_fract_y
_atom_site_fract_z
Cl1 Cl 0.25000 0.25000 0.01028
Cl2 Cl 0.00000 -0.03440 0.12751
N1 N 0.50000 -0.01690 0.11570
C1 C 0.50000 0.03300 0.18750
H1 H 0.50000 -0.13400 0.10400
H2 H 0.56100 0.03200 0.10100
H3 H 0.50000 0.12900 0.20100
H4 H 0.41800 -0.03600 0.20900
Mn1 Mn 0.00000 0.00000 0.00000
Mn1D Mn 0.50000 0.50000 0.00000
H2B H 0.43900 0.03200 0.10100
H4B H 0.58200 -0.03600 0.20900
Cl1B Cl -0.25000 0.25000 0.01028
Cl1H Cl -0.25000 -0.25000 -0.01028
Cl1J Cl 0.25000 -0.25000 -0.01028
Cl2H Cl 0.00000 0.03440 -0.12751
Mn1D* Mn -0.50000 0.50000 0.00000
#END

